********************************** N O D E S **********************************
*NODE, NSET=ALLNODES
       1,   -2.500000e+02,    0.000000e+00,   -5.000000e+00
       2,    0.000000e+00,    0.000000e+00,   -5.000000e+00
       3,   -2.380952e+02,    0.000000e+00,   -5.000000e+00
       4,   -2.261905e+02,    0.000000e+00,   -5.000000e+00
       5,   -2.142857e+02,    0.000000e+00,   -5.000000e+00
       6,   -2.023810e+02,    0.000000e+00,   -5.000000e+00
       7,   -1.904762e+02,    0.000000e+00,   -5.000000e+00
       8,   -1.785714e+02,    0.000000e+00,   -5.000000e+00
       9,   -1.666667e+02,    0.000000e+00,   -5.000000e+00
      10,   -1.547619e+02,    0.000000e+00,   -5.000000e+00
      11,   -1.428571e+02,    0.000000e+00,   -5.000000e+00
      12,   -1.309524e+02,    0.000000e+00,   -5.000000e+00
      13,   -1.190476e+02,    0.000000e+00,   -5.000000e+00
      14,   -1.071429e+02,    0.000000e+00,   -5.000000e+00
      15,   -9.523810e+01,    0.000000e+00,   -5.000000e+00
      16,   -8.333333e+01,    0.000000e+00,   -5.000000e+00
      17,   -7.142857e+01,    0.000000e+00,   -5.000000e+00
      18,   -5.952381e+01,    0.000000e+00,   -5.000000e+00
      19,   -4.761905e+01,    0.000000e+00,   -5.000000e+00
      20,   -3.571429e+01,    0.000000e+00,   -5.000000e+00
      21,   -2.380952e+01,    0.000000e+00,   -5.000000e+00
      22,   -1.190476e+01,    0.000000e+00,   -5.000000e+00
      23,   -2.500000e+02,    2.500000e+02,   -5.000000e+00
      24,   -2.500000e+02,    1.190476e+01,   -5.000000e+00
      25,   -2.500000e+02,    2.380952e+01,   -5.000000e+00
      26,   -2.500000e+02,    3.571429e+01,   -5.000000e+00
      27,   -2.500000e+02,    4.761905e+01,   -5.000000e+00
      28,   -2.500000e+02,    5.952381e+01,   -5.000000e+00
      29,   -2.500000e+02,    7.142857e+01,   -5.000000e+00
      30,   -2.500000e+02,    8.333333e+01,   -5.000000e+00
      31,   -2.500000e+02,    9.523810e+01,   -5.000000e+00
      32,   -2.500000e+02,    1.071429e+02,   -5.000000e+00
      33,   -2.500000e+02,    1.190476e+02,   -5.000000e+00
      34,   -2.500000e+02,    1.309524e+02,   -5.000000e+00
      35,   -2.500000e+02,    1.428571e+02,   -5.000000e+00
      36,   -2.500000e+02,    1.547619e+02,   -5.000000e+00
      37,   -2.500000e+02,    1.666667e+02,   -5.000000e+00
      38,   -2.500000e+02,    1.785714e+02,   -5.000000e+00
      39,   -2.500000e+02,    1.904762e+02,   -5.000000e+00
      40,   -2.500000e+02,    2.023810e+02,   -5.000000e+00
      41,   -2.500000e+02,    2.142857e+02,   -5.000000e+00
      42,   -2.500000e+02,    2.261905e+02,   -5.000000e+00
      43,   -2.500000e+02,    2.380952e+02,   -5.000000e+00
      44,    0.000000e+00,    2.500000e+02,   -5.000000e+00
      45,   -2.380952e+02,    2.500000e+02,   -5.000000e+00
      46,   -2.261905e+02,    2.500000e+02,   -5.000000e+00
      47,   -2.142857e+02,    2.500000e+02,   -5.000000e+00
      48,   -2.023810e+02,    2.500000e+02,   -5.000000e+00
      49,   -1.904762e+02,    2.500000e+02,   -5.000000e+00
      50,   -1.785714e+02,    2.500000e+02,   -5.000000e+00
      51,   -1.666667e+02,    2.500000e+02,   -5.000000e+00
      52,   -1.547619e+02,    2.500000e+02,   -5.000000e+00
      53,   -1.428571e+02,    2.500000e+02,   -5.000000e+00
      54,   -1.309524e+02,    2.500000e+02,   -5.000000e+00
      55,   -1.190476e+02,    2.500000e+02,   -5.000000e+00
      56,   -1.071429e+02,    2.500000e+02,   -5.000000e+00
      57,   -9.523810e+01,    2.500000e+02,   -5.000000e+00
      58,   -8.333333e+01,    2.500000e+02,   -5.000000e+00
      59,   -7.142857e+01,    2.500000e+02,   -5.000000e+00
      60,   -5.952381e+01,    2.500000e+02,   -5.000000e+00
      61,   -4.761905e+01,    2.500000e+02,   -5.000000e+00
      62,   -3.571429e+01,    2.500000e+02,   -5.000000e+00
      63,   -2.380952e+01,    2.500000e+02,   -5.000000e+00
      64,   -1.190476e+01,    2.500000e+02,   -5.000000e+00
      65,    0.000000e+00,    1.190476e+01,   -5.000000e+00
      66,    0.000000e+00,    2.380952e+01,   -5.000000e+00
      67,    0.000000e+00,    3.571429e+01,   -5.000000e+00
      68,    0.000000e+00,    4.761905e+01,   -5.000000e+00
      69,    0.000000e+00,    5.952381e+01,   -5.000000e+00
      70,    0.000000e+00,    7.142857e+01,   -5.000000e+00
      71,    0.000000e+00,    8.333333e+01,   -5.000000e+00
      72,    0.000000e+00,    9.523810e+01,   -5.000000e+00
      73,    0.000000e+00,    1.071429e+02,   -5.000000e+00
      74,    0.000000e+00,    1.190476e+02,   -5.000000e+00
      75,    0.000000e+00,    1.309524e+02,   -5.000000e+00
      76,    0.000000e+00,    1.428571e+02,   -5.000000e+00
      77,    0.000000e+00,    1.547619e+02,   -5.000000e+00
      78,    0.000000e+00,    1.666667e+02,   -5.000000e+00
      79,    0.000000e+00,    1.785714e+02,   -5.000000e+00
      80,    0.000000e+00,    1.904762e+02,   -5.000000e+00
      81,    0.000000e+00,    2.023810e+02,   -5.000000e+00
      82,    0.000000e+00,    2.142857e+02,   -5.000000e+00
      83,    0.000000e+00,    2.261905e+02,   -5.000000e+00
      84,    0.000000e+00,    2.380952e+02,   -5.000000e+00
      85,   -1.190476e+01,    1.190476e+01,   -5.000000e+00
      86,   -2.380952e+01,    1.190476e+01,   -5.000000e+00
      87,   -3.571429e+01,    1.190476e+01,   -5.000000e+00
      88,   -4.761905e+01,    1.190476e+01,   -5.000000e+00
      89,   -5.952381e+01,    1.190476e+01,   -5.000000e+00
      90,   -7.142857e+01,    1.190476e+01,   -5.000000e+00
      91,   -8.333333e+01,    1.190476e+01,   -5.000000e+00
      92,   -9.523810e+01,    1.190476e+01,   -5.000000e+00
      93,   -1.071429e+02,    1.190476e+01,   -5.000000e+00
      94,   -1.190476e+02,    1.190476e+01,   -5.000000e+00
      95,   -1.309524e+02,    1.190476e+01,   -5.000000e+00
      96,   -1.428571e+02,    1.190476e+01,   -5.000000e+00
      97,   -1.547619e+02,    1.190476e+01,   -5.000000e+00
      98,   -1.666667e+02,    1.190476e+01,   -5.000000e+00
      99,   -1.785714e+02,    1.190476e+01,   -5.000000e+00
     100,   -1.904762e+02,    1.190476e+01,   -5.000000e+00
     101,   -2.023810e+02,    1.190476e+01,   -5.000000e+00
     102,   -2.142857e+02,    1.190476e+01,   -5.000000e+00
     103,   -2.261905e+02,    1.190476e+01,   -5.000000e+00
     104,   -2.380952e+02,    1.190476e+01,   -5.000000e+00
     105,   -1.190476e+01,    2.380952e+01,   -5.000000e+00
     106,   -2.380952e+01,    2.380952e+01,   -5.000000e+00
     107,   -3.571429e+01,    2.380952e+01,   -5.000000e+00
     108,   -4.761905e+01,    2.380952e+01,   -5.000000e+00
     109,   -5.952381e+01,    2.380952e+01,   -5.000000e+00
     110,   -7.142857e+01,    2.380952e+01,   -5.000000e+00
     111,   -8.333333e+01,    2.380952e+01,   -5.000000e+00
     112,   -9.523810e+01,    2.380952e+01,   -5.000000e+00
     113,   -1.071429e+02,    2.380952e+01,   -5.000000e+00
     114,   -1.190476e+02,    2.380952e+01,   -5.000000e+00
     115,   -1.309524e+02,    2.380952e+01,   -5.000000e+00
     116,   -1.428571e+02,    2.380952e+01,   -5.000000e+00
     117,   -1.547619e+02,    2.380952e+01,   -5.000000e+00
     118,   -1.666667e+02,    2.380952e+01,   -5.000000e+00
     119,   -1.785714e+02,    2.380952e+01,   -5.000000e+00
     120,   -1.904762e+02,    2.380952e+01,   -5.000000e+00
     121,   -2.023810e+02,    2.380952e+01,   -5.000000e+00
     122,   -2.142857e+02,    2.380952e+01,   -5.000000e+00
     123,   -2.261905e+02,    2.380952e+01,   -5.000000e+00
     124,   -2.380952e+02,    2.380952e+01,   -5.000000e+00
     125,   -1.190476e+01,    3.571429e+01,   -5.000000e+00
     126,   -2.380952e+01,    3.571429e+01,   -5.000000e+00
     127,   -3.571429e+01,    3.571429e+01,   -5.000000e+00
     128,   -4.761905e+01,    3.571429e+01,   -5.000000e+00
     129,   -5.952381e+01,    3.571429e+01,   -5.000000e+00
     130,   -7.142857e+01,    3.571429e+01,   -5.000000e+00
     131,   -8.333333e+01,    3.571429e+01,   -5.000000e+00
     132,   -9.523810e+01,    3.571429e+01,   -5.000000e+00
     133,   -1.071429e+02,    3.571429e+01,   -5.000000e+00
     134,   -1.190476e+02,    3.571429e+01,   -5.000000e+00
     135,   -1.309524e+02,    3.571429e+01,   -5.000000e+00
     136,   -1.428571e+02,    3.571429e+01,   -5.000000e+00
     137,   -1.547619e+02,    3.571429e+01,   -5.000000e+00
     138,   -1.666667e+02,    3.571429e+01,   -5.000000e+00
     139,   -1.785714e+02,    3.571429e+01,   -5.000000e+00
     140,   -1.904762e+02,    3.571429e+01,   -5.000000e+00
     141,   -2.023810e+02,    3.571429e+01,   -5.000000e+00
     142,   -2.142857e+02,    3.571429e+01,   -5.000000e+00
     143,   -2.261905e+02,    3.571429e+01,   -5.000000e+00
     144,   -2.380952e+02,    3.571429e+01,   -5.000000e+00
     145,   -1.190476e+01,    4.761905e+01,   -5.000000e+00
     146,   -2.380952e+01,    4.761905e+01,   -5.000000e+00
     147,   -3.571429e+01,    4.761905e+01,   -5.000000e+00
     148,   -4.761905e+01,    4.761905e+01,   -5.000000e+00
     149,   -5.952381e+01,    4.761905e+01,   -5.000000e+00
     150,   -7.142857e+01,    4.761905e+01,   -5.000000e+00
     151,   -8.333333e+01,    4.761905e+01,   -5.000000e+00
     152,   -9.523810e+01,    4.761905e+01,   -5.000000e+00
     153,   -1.071429e+02,    4.761905e+01,   -5.000000e+00
     154,   -1.190476e+02,    4.761905e+01,   -5.000000e+00
     155,   -1.309524e+02,    4.761905e+01,   -5.000000e+00
     156,   -1.428571e+02,    4.761905e+01,   -5.000000e+00
     157,   -1.547619e+02,    4.761905e+01,   -5.000000e+00
     158,   -1.666667e+02,    4.761905e+01,   -5.000000e+00
     159,   -1.785714e+02,    4.761905e+01,   -5.000000e+00
     160,   -1.904762e+02,    4.761905e+01,   -5.000000e+00
     161,   -2.023810e+02,    4.761905e+01,   -5.000000e+00
     162,   -2.142857e+02,    4.761905e+01,   -5.000000e+00
     163,   -2.261905e+02,    4.761905e+01,   -5.000000e+00
     164,   -2.380952e+02,    4.761905e+01,   -5.000000e+00
     165,   -1.190476e+01,    5.952381e+01,   -5.000000e+00
     166,   -2.380952e+01,    5.952381e+01,   -5.000000e+00
     167,   -3.571429e+01,    5.952381e+01,   -5.000000e+00
     168,   -4.761905e+01,    5.952381e+01,   -5.000000e+00
     169,   -5.952381e+01,    5.952381e+01,   -5.000000e+00
     170,   -7.142857e+01,    5.952381e+01,   -5.000000e+00
     171,   -8.333333e+01,    5.952381e+01,   -5.000000e+00
     172,   -9.523810e+01,    5.952381e+01,   -5.000000e+00
     173,   -1.071429e+02,    5.952381e+01,   -5.000000e+00
     174,   -1.190476e+02,    5.952381e+01,   -5.000000e+00
     175,   -1.309524e+02,    5.952381e+01,   -5.000000e+00
     176,   -1.428571e+02,    5.952381e+01,   -5.000000e+00
     177,   -1.547619e+02,    5.952381e+01,   -5.000000e+00
     178,   -1.666667e+02,    5.952381e+01,   -5.000000e+00
     179,   -1.785714e+02,    5.952381e+01,   -5.000000e+00
     180,   -1.904762e+02,    5.952381e+01,   -5.000000e+00
     181,   -2.023810e+02,    5.952381e+01,   -5.000000e+00
     182,   -2.142857e+02,    5.952381e+01,   -5.000000e+00
     183,   -2.261905e+02,    5.952381e+01,   -5.000000e+00
     184,   -2.380952e+02,    5.952381e+01,   -5.000000e+00
     185,   -1.190476e+01,    7.142857e+01,   -5.000000e+00
     186,   -2.380952e+01,    7.142857e+01,   -5.000000e+00
     187,   -3.571429e+01,    7.142857e+01,   -5.000000e+00
     188,   -4.761905e+01,    7.142857e+01,   -5.000000e+00
     189,   -5.952381e+01,    7.142857e+01,   -5.000000e+00
     190,   -7.142857e+01,    7.142857e+01,   -5.000000e+00
     191,   -8.333333e+01,    7.142857e+01,   -5.000000e+00
     192,   -9.523810e+01,    7.142857e+01,   -5.000000e+00
     193,   -1.071429e+02,    7.142857e+01,   -5.000000e+00
     194,   -1.190476e+02,    7.142857e+01,   -5.000000e+00
     195,   -1.309524e+02,    7.142857e+01,   -5.000000e+00
     196,   -1.428571e+02,    7.142857e+01,   -5.000000e+00
     197,   -1.547619e+02,    7.142857e+01,   -5.000000e+00
     198,   -1.666667e+02,    7.142857e+01,   -5.000000e+00
     199,   -1.785714e+02,    7.142857e+01,   -5.000000e+00
     200,   -1.904762e+02,    7.142857e+01,   -5.000000e+00
     201,   -2.023810e+02,    7.142857e+01,   -5.000000e+00
     202,   -2.142857e+02,    7.142857e+01,   -5.000000e+00
     203,   -2.261905e+02,    7.142857e+01,   -5.000000e+00
     204,   -2.380952e+02,    7.142857e+01,   -5.000000e+00
     205,   -1.190476e+01,    8.333333e+01,   -5.000000e+00
     206,   -2.380952e+01,    8.333333e+01,   -5.000000e+00
     207,   -3.571429e+01,    8.333333e+01,   -5.000000e+00
     208,   -4.761905e+01,    8.333333e+01,   -5.000000e+00
     209,   -5.952381e+01,    8.333333e+01,   -5.000000e+00
     210,   -7.142857e+01,    8.333333e+01,   -5.000000e+00
     211,   -8.333333e+01,    8.333333e+01,   -5.000000e+00
     212,   -9.523810e+01,    8.333333e+01,   -5.000000e+00
     213,   -1.071429e+02,    8.333333e+01,   -5.000000e+00
     214,   -1.190476e+02,    8.333333e+01,   -5.000000e+00
     215,   -1.309524e+02,    8.333333e+01,   -5.000000e+00
     216,   -1.428571e+02,    8.333333e+01,   -5.000000e+00
     217,   -1.547619e+02,    8.333333e+01,   -5.000000e+00
     218,   -1.666667e+02,    8.333333e+01,   -5.000000e+00
     219,   -1.785714e+02,    8.333333e+01,   -5.000000e+00
     220,   -1.904762e+02,    8.333333e+01,   -5.000000e+00
     221,   -2.023810e+02,    8.333333e+01,   -5.000000e+00
     222,   -2.142857e+02,    8.333333e+01,   -5.000000e+00
     223,   -2.261905e+02,    8.333333e+01,   -5.000000e+00
     224,   -2.380952e+02,    8.333333e+01,   -5.000000e+00
     225,   -1.190476e+01,    9.523810e+01,   -5.000000e+00
     226,   -2.380952e+01,    9.523810e+01,   -5.000000e+00
     227,   -3.571429e+01,    9.523810e+01,   -5.000000e+00
     228,   -4.761905e+01,    9.523810e+01,   -5.000000e+00
     229,   -5.952381e+01,    9.523810e+01,   -5.000000e+00
     230,   -7.142857e+01,    9.523810e+01,   -5.000000e+00
     231,   -8.333333e+01,    9.523810e+01,   -5.000000e+00
     232,   -9.523810e+01,    9.523810e+01,   -5.000000e+00
     233,   -1.071429e+02,    9.523810e+01,   -5.000000e+00
     234,   -1.190476e+02,    9.523810e+01,   -5.000000e+00
     235,   -1.309524e+02,    9.523810e+01,   -5.000000e+00
     236,   -1.428571e+02,    9.523810e+01,   -5.000000e+00
     237,   -1.547619e+02,    9.523810e+01,   -5.000000e+00
     238,   -1.666667e+02,    9.523810e+01,   -5.000000e+00
     239,   -1.785714e+02,    9.523810e+01,   -5.000000e+00
     240,   -1.904762e+02,    9.523810e+01,   -5.000000e+00
     241,   -2.023810e+02,    9.523810e+01,   -5.000000e+00
     242,   -2.142857e+02,    9.523810e+01,   -5.000000e+00
     243,   -2.261905e+02,    9.523810e+01,   -5.000000e+00
     244,   -2.380952e+02,    9.523810e+01,   -5.000000e+00
     245,   -1.190476e+01,    1.071429e+02,   -5.000000e+00
     246,   -2.380952e+01,    1.071429e+02,   -5.000000e+00
     247,   -3.571429e+01,    1.071429e+02,   -5.000000e+00
     248,   -4.761905e+01,    1.071429e+02,   -5.000000e+00
     249,   -5.952381e+01,    1.071429e+02,   -5.000000e+00
     250,   -7.142857e+01,    1.071429e+02,   -5.000000e+00
     251,   -8.333333e+01,    1.071429e+02,   -5.000000e+00
     252,   -9.523810e+01,    1.071429e+02,   -5.000000e+00
     253,   -1.071429e+02,    1.071429e+02,   -5.000000e+00
     254,   -1.190476e+02,    1.071429e+02,   -5.000000e+00
     255,   -1.309524e+02,    1.071429e+02,   -5.000000e+00
     256,   -1.428571e+02,    1.071429e+02,   -5.000000e+00
     257,   -1.547619e+02,    1.071429e+02,   -5.000000e+00
     258,   -1.666667e+02,    1.071429e+02,   -5.000000e+00
     259,   -1.785714e+02,    1.071429e+02,   -5.000000e+00
     260,   -1.904762e+02,    1.071429e+02,   -5.000000e+00
     261,   -2.023810e+02,    1.071429e+02,   -5.000000e+00
     262,   -2.142857e+02,    1.071429e+02,   -5.000000e+00
     263,   -2.261905e+02,    1.071429e+02,   -5.000000e+00
     264,   -2.380952e+02,    1.071429e+02,   -5.000000e+00
     265,   -1.190476e+01,    1.190476e+02,   -5.000000e+00
     266,   -2.380952e+01,    1.190476e+02,   -5.000000e+00
     267,   -3.571429e+01,    1.190476e+02,   -5.000000e+00
     268,   -4.761905e+01,    1.190476e+02,   -5.000000e+00
     269,   -5.952381e+01,    1.190476e+02,   -5.000000e+00
     270,   -7.142857e+01,    1.190476e+02,   -5.000000e+00
     271,   -8.333333e+01,    1.190476e+02,   -5.000000e+00
     272,   -9.523810e+01,    1.190476e+02,   -5.000000e+00
     273,   -1.071429e+02,    1.190476e+02,   -5.000000e+00
     274,   -1.190476e+02,    1.190476e+02,   -5.000000e+00
     275,   -1.309524e+02,    1.190476e+02,   -5.000000e+00
     276,   -1.428571e+02,    1.190476e+02,   -5.000000e+00
     277,   -1.547619e+02,    1.190476e+02,   -5.000000e+00
     278,   -1.666667e+02,    1.190476e+02,   -5.000000e+00
     279,   -1.785714e+02,    1.190476e+02,   -5.000000e+00
     280,   -1.904762e+02,    1.190476e+02,   -5.000000e+00
     281,   -2.023810e+02,    1.190476e+02,   -5.000000e+00
     282,   -2.142857e+02,    1.190476e+02,   -5.000000e+00
     283,   -2.261905e+02,    1.190476e+02,   -5.000000e+00
     284,   -2.380952e+02,    1.190476e+02,   -5.000000e+00
     285,   -1.190476e+01,    1.309524e+02,   -5.000000e+00
     286,   -2.380952e+01,    1.309524e+02,   -5.000000e+00
     287,   -3.571429e+01,    1.309524e+02,   -5.000000e+00
     288,   -4.761905e+01,    1.309524e+02,   -5.000000e+00
     289,   -5.952381e+01,    1.309524e+02,   -5.000000e+00
     290,   -7.142857e+01,    1.309524e+02,   -5.000000e+00
     291,   -8.333333e+01,    1.309524e+02,   -5.000000e+00
     292,   -9.523810e+01,    1.309524e+02,   -5.000000e+00
     293,   -1.071429e+02,    1.309524e+02,   -5.000000e+00
     294,   -1.190476e+02,    1.309524e+02,   -5.000000e+00
     295,   -1.309524e+02,    1.309524e+02,   -5.000000e+00
     296,   -1.428571e+02,    1.309524e+02,   -5.000000e+00
     297,   -1.547619e+02,    1.309524e+02,   -5.000000e+00
     298,   -1.666667e+02,    1.309524e+02,   -5.000000e+00
     299,   -1.785714e+02,    1.309524e+02,   -5.000000e+00
     300,   -1.904762e+02,    1.309524e+02,   -5.000000e+00
     301,   -2.023810e+02,    1.309524e+02,   -5.000000e+00
     302,   -2.142857e+02,    1.309524e+02,   -5.000000e+00
     303,   -2.261905e+02,    1.309524e+02,   -5.000000e+00
     304,   -2.380952e+02,    1.309524e+02,   -5.000000e+00
     305,   -1.190476e+01,    1.428571e+02,   -5.000000e+00
     306,   -2.380952e+01,    1.428571e+02,   -5.000000e+00
     307,   -3.571429e+01,    1.428571e+02,   -5.000000e+00
     308,   -4.761905e+01,    1.428571e+02,   -5.000000e+00
     309,   -5.952381e+01,    1.428571e+02,   -5.000000e+00
     310,   -7.142857e+01,    1.428571e+02,   -5.000000e+00
     311,   -8.333333e+01,    1.428571e+02,   -5.000000e+00
     312,   -9.523810e+01,    1.428571e+02,   -5.000000e+00
     313,   -1.071429e+02,    1.428571e+02,   -5.000000e+00
     314,   -1.190476e+02,    1.428571e+02,   -5.000000e+00
     315,   -1.309524e+02,    1.428571e+02,   -5.000000e+00
     316,   -1.428571e+02,    1.428571e+02,   -5.000000e+00
     317,   -1.547619e+02,    1.428571e+02,   -5.000000e+00
     318,   -1.666667e+02,    1.428571e+02,   -5.000000e+00
     319,   -1.785714e+02,    1.428571e+02,   -5.000000e+00
     320,   -1.904762e+02,    1.428571e+02,   -5.000000e+00
     321,   -2.023810e+02,    1.428571e+02,   -5.000000e+00
     322,   -2.142857e+02,    1.428571e+02,   -5.000000e+00
     323,   -2.261905e+02,    1.428571e+02,   -5.000000e+00
     324,   -2.380952e+02,    1.428571e+02,   -5.000000e+00
     325,   -1.190476e+01,    1.547619e+02,   -5.000000e+00
     326,   -2.380952e+01,    1.547619e+02,   -5.000000e+00
     327,   -3.571429e+01,    1.547619e+02,   -5.000000e+00
     328,   -4.761905e+01,    1.547619e+02,   -5.000000e+00
     329,   -5.952381e+01,    1.547619e+02,   -5.000000e+00
     330,   -7.142857e+01,    1.547619e+02,   -5.000000e+00
     331,   -8.333333e+01,    1.547619e+02,   -5.000000e+00
     332,   -9.523810e+01,    1.547619e+02,   -5.000000e+00
     333,   -1.071429e+02,    1.547619e+02,   -5.000000e+00
     334,   -1.190476e+02,    1.547619e+02,   -5.000000e+00
     335,   -1.309524e+02,    1.547619e+02,   -5.000000e+00
     336,   -1.428571e+02,    1.547619e+02,   -5.000000e+00
     337,   -1.547619e+02,    1.547619e+02,   -5.000000e+00
     338,   -1.666667e+02,    1.547619e+02,   -5.000000e+00
     339,   -1.785714e+02,    1.547619e+02,   -5.000000e+00
     340,   -1.904762e+02,    1.547619e+02,   -5.000000e+00
     341,   -2.023810e+02,    1.547619e+02,   -5.000000e+00
     342,   -2.142857e+02,    1.547619e+02,   -5.000000e+00
     343,   -2.261905e+02,    1.547619e+02,   -5.000000e+00
     344,   -2.380952e+02,    1.547619e+02,   -5.000000e+00
     345,   -1.190476e+01,    1.666667e+02,   -5.000000e+00
     346,   -2.380952e+01,    1.666667e+02,   -5.000000e+00
     347,   -3.571429e+01,    1.666667e+02,   -5.000000e+00
     348,   -4.761905e+01,    1.666667e+02,   -5.000000e+00
     349,   -5.952381e+01,    1.666667e+02,   -5.000000e+00
     350,   -7.142857e+01,    1.666667e+02,   -5.000000e+00
     351,   -8.333333e+01,    1.666667e+02,   -5.000000e+00
     352,   -9.523810e+01,    1.666667e+02,   -5.000000e+00
     353,   -1.071429e+02,    1.666667e+02,   -5.000000e+00
     354,   -1.190476e+02,    1.666667e+02,   -5.000000e+00
     355,   -1.309524e+02,    1.666667e+02,   -5.000000e+00
     356,   -1.428571e+02,    1.666667e+02,   -5.000000e+00
     357,   -1.547619e+02,    1.666667e+02,   -5.000000e+00
     358,   -1.666667e+02,    1.666667e+02,   -5.000000e+00
     359,   -1.785714e+02,    1.666667e+02,   -5.000000e+00
     360,   -1.904762e+02,    1.666667e+02,   -5.000000e+00
     361,   -2.023810e+02,    1.666667e+02,   -5.000000e+00
     362,   -2.142857e+02,    1.666667e+02,   -5.000000e+00
     363,   -2.261905e+02,    1.666667e+02,   -5.000000e+00
     364,   -2.380952e+02,    1.666667e+02,   -5.000000e+00
     365,   -1.190476e+01,    1.785714e+02,   -5.000000e+00
     366,   -2.380952e+01,    1.785714e+02,   -5.000000e+00
     367,   -3.571429e+01,    1.785714e+02,   -5.000000e+00
     368,   -4.761905e+01,    1.785714e+02,   -5.000000e+00
     369,   -5.952381e+01,    1.785714e+02,   -5.000000e+00
     370,   -7.142857e+01,    1.785714e+02,   -5.000000e+00
     371,   -8.333333e+01,    1.785714e+02,   -5.000000e+00
     372,   -9.523810e+01,    1.785714e+02,   -5.000000e+00
     373,   -1.071429e+02,    1.785714e+02,   -5.000000e+00
     374,   -1.190476e+02,    1.785714e+02,   -5.000000e+00
     375,   -1.309524e+02,    1.785714e+02,   -5.000000e+00
     376,   -1.428571e+02,    1.785714e+02,   -5.000000e+00
     377,   -1.547619e+02,    1.785714e+02,   -5.000000e+00
     378,   -1.666667e+02,    1.785714e+02,   -5.000000e+00
     379,   -1.785714e+02,    1.785714e+02,   -5.000000e+00
     380,   -1.904762e+02,    1.785714e+02,   -5.000000e+00
     381,   -2.023810e+02,    1.785714e+02,   -5.000000e+00
     382,   -2.142857e+02,    1.785714e+02,   -5.000000e+00
     383,   -2.261905e+02,    1.785714e+02,   -5.000000e+00
     384,   -2.380952e+02,    1.785714e+02,   -5.000000e+00
     385,   -1.190476e+01,    1.904762e+02,   -5.000000e+00
     386,   -2.380952e+01,    1.904762e+02,   -5.000000e+00
     387,   -3.571429e+01,    1.904762e+02,   -5.000000e+00
     388,   -4.761905e+01,    1.904762e+02,   -5.000000e+00
     389,   -5.952381e+01,    1.904762e+02,   -5.000000e+00
     390,   -7.142857e+01,    1.904762e+02,   -5.000000e+00
     391,   -8.333333e+01,    1.904762e+02,   -5.000000e+00
     392,   -9.523810e+01,    1.904762e+02,   -5.000000e+00
     393,   -1.071429e+02,    1.904762e+02,   -5.000000e+00
     394,   -1.190476e+02,    1.904762e+02,   -5.000000e+00
     395,   -1.309524e+02,    1.904762e+02,   -5.000000e+00
     396,   -1.428571e+02,    1.904762e+02,   -5.000000e+00
     397,   -1.547619e+02,    1.904762e+02,   -5.000000e+00
     398,   -1.666667e+02,    1.904762e+02,   -5.000000e+00
     399,   -1.785714e+02,    1.904762e+02,   -5.000000e+00
     400,   -1.904762e+02,    1.904762e+02,   -5.000000e+00
     401,   -2.023810e+02,    1.904762e+02,   -5.000000e+00
     402,   -2.142857e+02,    1.904762e+02,   -5.000000e+00
     403,   -2.261905e+02,    1.904762e+02,   -5.000000e+00
     404,   -2.380952e+02,    1.904762e+02,   -5.000000e+00
     405,   -1.190476e+01,    2.023810e+02,   -5.000000e+00
     406,   -2.380952e+01,    2.023810e+02,   -5.000000e+00
     407,   -3.571429e+01,    2.023810e+02,   -5.000000e+00
     408,   -4.761905e+01,    2.023810e+02,   -5.000000e+00
     409,   -5.952381e+01,    2.023810e+02,   -5.000000e+00
     410,   -7.142857e+01,    2.023810e+02,   -5.000000e+00
     411,   -8.333333e+01,    2.023810e+02,   -5.000000e+00
     412,   -9.523810e+01,    2.023810e+02,   -5.000000e+00
     413,   -1.071429e+02,    2.023810e+02,   -5.000000e+00
     414,   -1.190476e+02,    2.023810e+02,   -5.000000e+00
     415,   -1.309524e+02,    2.023810e+02,   -5.000000e+00
     416,   -1.428571e+02,    2.023810e+02,   -5.000000e+00
     417,   -1.547619e+02,    2.023810e+02,   -5.000000e+00
     418,   -1.666667e+02,    2.023810e+02,   -5.000000e+00
     419,   -1.785714e+02,    2.023810e+02,   -5.000000e+00
     420,   -1.904762e+02,    2.023810e+02,   -5.000000e+00
     421,   -2.023810e+02,    2.023810e+02,   -5.000000e+00
     422,   -2.142857e+02,    2.023810e+02,   -5.000000e+00
     423,   -2.261905e+02,    2.023810e+02,   -5.000000e+00
     424,   -2.380952e+02,    2.023810e+02,   -5.000000e+00
     425,   -1.190476e+01,    2.142857e+02,   -5.000000e+00
     426,   -2.380952e+01,    2.142857e+02,   -5.000000e+00
     427,   -3.571429e+01,    2.142857e+02,   -5.000000e+00
     428,   -4.761905e+01,    2.142857e+02,   -5.000000e+00
     429,   -5.952381e+01,    2.142857e+02,   -5.000000e+00
     430,   -7.142857e+01,    2.142857e+02,   -5.000000e+00
     431,   -8.333333e+01,    2.142857e+02,   -5.000000e+00
     432,   -9.523810e+01,    2.142857e+02,   -5.000000e+00
     433,   -1.071429e+02,    2.142857e+02,   -5.000000e+00
     434,   -1.190476e+02,    2.142857e+02,   -5.000000e+00
     435,   -1.309524e+02,    2.142857e+02,   -5.000000e+00
     436,   -1.428571e+02,    2.142857e+02,   -5.000000e+00
     437,   -1.547619e+02,    2.142857e+02,   -5.000000e+00
     438,   -1.666667e+02,    2.142857e+02,   -5.000000e+00
     439,   -1.785714e+02,    2.142857e+02,   -5.000000e+00
     440,   -1.904762e+02,    2.142857e+02,   -5.000000e+00
     441,   -2.023810e+02,    2.142857e+02,   -5.000000e+00
     442,   -2.142857e+02,    2.142857e+02,   -5.000000e+00
     443,   -2.261905e+02,    2.142857e+02,   -5.000000e+00
     444,   -2.380952e+02,    2.142857e+02,   -5.000000e+00
     445,   -1.190476e+01,    2.261905e+02,   -5.000000e+00
     446,   -2.380952e+01,    2.261905e+02,   -5.000000e+00
     447,   -3.571429e+01,    2.261905e+02,   -5.000000e+00
     448,   -4.761905e+01,    2.261905e+02,   -5.000000e+00
     449,   -5.952381e+01,    2.261905e+02,   -5.000000e+00
     450,   -7.142857e+01,    2.261905e+02,   -5.000000e+00
     451,   -8.333333e+01,    2.261905e+02,   -5.000000e+00
     452,   -9.523810e+01,    2.261905e+02,   -5.000000e+00
     453,   -1.071429e+02,    2.261905e+02,   -5.000000e+00
     454,   -1.190476e+02,    2.261905e+02,   -5.000000e+00
     455,   -1.309524e+02,    2.261905e+02,   -5.000000e+00
     456,   -1.428571e+02,    2.261905e+02,   -5.000000e+00
     457,   -1.547619e+02,    2.261905e+02,   -5.000000e+00
     458,   -1.666667e+02,    2.261905e+02,   -5.000000e+00
     459,   -1.785714e+02,    2.261905e+02,   -5.000000e+00
     460,   -1.904762e+02,    2.261905e+02,   -5.000000e+00
     461,   -2.023810e+02,    2.261905e+02,   -5.000000e+00
     462,   -2.142857e+02,    2.261905e+02,   -5.000000e+00
     463,   -2.261905e+02,    2.261905e+02,   -5.000000e+00
     464,   -2.380952e+02,    2.261905e+02,   -5.000000e+00
     465,   -1.190476e+01,    2.380952e+02,   -5.000000e+00
     466,   -2.380952e+01,    2.380952e+02,   -5.000000e+00
     467,   -3.571429e+01,    2.380952e+02,   -5.000000e+00
     468,   -4.761905e+01,    2.380952e+02,   -5.000000e+00
     469,   -5.952381e+01,    2.380952e+02,   -5.000000e+00
     470,   -7.142857e+01,    2.380952e+02,   -5.000000e+00
     471,   -8.333333e+01,    2.380952e+02,   -5.000000e+00
     472,   -9.523810e+01,    2.380952e+02,   -5.000000e+00
     473,   -1.071429e+02,    2.380952e+02,   -5.000000e+00
     474,   -1.190476e+02,    2.380952e+02,   -5.000000e+00
     475,   -1.309524e+02,    2.380952e+02,   -5.000000e+00
     476,   -1.428571e+02,    2.380952e+02,   -5.000000e+00
     477,   -1.547619e+02,    2.380952e+02,   -5.000000e+00
     478,   -1.666667e+02,    2.380952e+02,   -5.000000e+00
     479,   -1.785714e+02,    2.380952e+02,   -5.000000e+00
     480,   -1.904762e+02,    2.380952e+02,   -5.000000e+00
     481,   -2.023810e+02,    2.380952e+02,   -5.000000e+00
     482,   -2.142857e+02,    2.380952e+02,   -5.000000e+00
     483,   -2.261905e+02,    2.380952e+02,   -5.000000e+00
     484,   -2.380952e+02,    2.380952e+02,   -5.000000e+00
     485,    2.000000e+02,    0.000000e+00,   -5.000000e+00
     486,    2.000000e+02,    2.500000e+02,   -5.000000e+00
     487,    2.000000e+02,    1.190476e+01,   -5.000000e+00
     488,    2.000000e+02,    2.380952e+01,   -5.000000e+00
     489,    2.000000e+02,    3.571429e+01,   -5.000000e+00
     490,    2.000000e+02,    4.761905e+01,   -5.000000e+00
     491,    2.000000e+02,    5.952381e+01,   -5.000000e+00
     492,    2.000000e+02,    7.142857e+01,   -5.000000e+00
     493,    2.000000e+02,    8.333333e+01,   -5.000000e+00
     494,    2.000000e+02,    9.523810e+01,   -5.000000e+00
     495,    2.000000e+02,    1.071429e+02,   -5.000000e+00
     496,    2.000000e+02,    1.190476e+02,   -5.000000e+00
     497,    2.000000e+02,    1.309524e+02,   -5.000000e+00
     498,    2.000000e+02,    1.428571e+02,   -5.000000e+00
     499,    2.000000e+02,    1.547619e+02,   -5.000000e+00
     500,    2.000000e+02,    1.666667e+02,   -5.000000e+00
     501,    2.000000e+02,    1.785714e+02,   -5.000000e+00
     502,    2.000000e+02,    1.904762e+02,   -5.000000e+00
     503,    2.000000e+02,    2.023810e+02,   -5.000000e+00
     504,    2.000000e+02,    2.142857e+02,   -5.000000e+00
     505,    2.000000e+02,    2.261905e+02,   -5.000000e+00
     506,    2.000000e+02,    2.380952e+02,   -5.000000e+00
     507,    2.500000e+02,    2.500000e+02,   -5.000000e+00
     508,    2.125000e+02,    2.500000e+02,   -5.000000e+00
     509,    2.250000e+02,    2.500000e+02,   -5.000000e+00
     510,    2.375000e+02,    2.500000e+02,   -5.000000e+00
     511,    2.500000e+02,    0.000000e+00,   -5.000000e+00
     512,    2.500000e+02,    2.380952e+02,   -5.000000e+00
     513,    2.500000e+02,    2.261905e+02,   -5.000000e+00
     514,    2.500000e+02,    2.142857e+02,   -5.000000e+00
     515,    2.500000e+02,    2.023810e+02,   -5.000000e+00
     516,    2.500000e+02,    1.904762e+02,   -5.000000e+00
     517,    2.500000e+02,    1.785714e+02,   -5.000000e+00
     518,    2.500000e+02,    1.666667e+02,   -5.000000e+00
     519,    2.500000e+02,    1.547619e+02,   -5.000000e+00
     520,    2.500000e+02,    1.428571e+02,   -5.000000e+00
     521,    2.500000e+02,    1.309524e+02,   -5.000000e+00
     522,    2.500000e+02,    1.190476e+02,   -5.000000e+00
     523,    2.500000e+02,    1.071429e+02,   -5.000000e+00
     524,    2.500000e+02,    9.523810e+01,   -5.000000e+00
     525,    2.500000e+02,    8.333333e+01,   -5.000000e+00
     526,    2.500000e+02,    7.142857e+01,   -5.000000e+00
     527,    2.500000e+02,    5.952381e+01,   -5.000000e+00
     528,    2.500000e+02,    4.761905e+01,   -5.000000e+00
     529,    2.500000e+02,    3.571429e+01,   -5.000000e+00
     530,    2.500000e+02,    2.380952e+01,   -5.000000e+00
     531,    2.500000e+02,    1.190476e+01,   -5.000000e+00
     532,    2.125000e+02,    0.000000e+00,   -5.000000e+00
     533,    2.250000e+02,    0.000000e+00,   -5.000000e+00
     534,    2.375000e+02,    0.000000e+00,   -5.000000e+00
     535,    2.125000e+02,    1.190476e+01,   -5.000000e+00
     536,    2.125000e+02,    2.380952e+01,   -5.000000e+00
     537,    2.125000e+02,    3.571429e+01,   -5.000000e+00
     538,    2.125000e+02,    4.761905e+01,   -5.000000e+00
     539,    2.125000e+02,    5.952381e+01,   -5.000000e+00
     540,    2.125000e+02,    7.142857e+01,   -5.000000e+00
     541,    2.125000e+02,    8.333333e+01,   -5.000000e+00
     542,    2.125000e+02,    9.523810e+01,   -5.000000e+00
     543,    2.125000e+02,    1.071429e+02,   -5.000000e+00
     544,    2.125000e+02,    1.190476e+02,   -5.000000e+00
     545,    2.125000e+02,    1.309524e+02,   -5.000000e+00
     546,    2.125000e+02,    1.428571e+02,   -5.000000e+00
     547,    2.125000e+02,    1.547619e+02,   -5.000000e+00
     548,    2.125000e+02,    1.666667e+02,   -5.000000e+00
     549,    2.125000e+02,    1.785714e+02,   -5.000000e+00
     550,    2.125000e+02,    1.904762e+02,   -5.000000e+00
     551,    2.125000e+02,    2.023810e+02,   -5.000000e+00
     552,    2.125000e+02,    2.142857e+02,   -5.000000e+00
     553,    2.125000e+02,    2.261905e+02,   -5.000000e+00
     554,    2.125000e+02,    2.380952e+02,   -5.000000e+00
     555,    2.250000e+02,    1.190476e+01,   -5.000000e+00
     556,    2.250000e+02,    2.380952e+01,   -5.000000e+00
     557,    2.250000e+02,    3.571429e+01,   -5.000000e+00
     558,    2.250000e+02,    4.761905e+01,   -5.000000e+00
     559,    2.250000e+02,    5.952381e+01,   -5.000000e+00
     560,    2.250000e+02,    7.142857e+01,   -5.000000e+00
     561,    2.250000e+02,    8.333333e+01,   -5.000000e+00
     562,    2.250000e+02,    9.523810e+01,   -5.000000e+00
     563,    2.250000e+02,    1.071429e+02,   -5.000000e+00
     564,    2.250000e+02,    1.190476e+02,   -5.000000e+00
     565,    2.250000e+02,    1.309524e+02,   -5.000000e+00
     566,    2.250000e+02,    1.428571e+02,   -5.000000e+00
     567,    2.250000e+02,    1.547619e+02,   -5.000000e+00
     568,    2.250000e+02,    1.666667e+02,   -5.000000e+00
     569,    2.250000e+02,    1.785714e+02,   -5.000000e+00
     570,    2.250000e+02,    1.904762e+02,   -5.000000e+00
     571,    2.250000e+02,    2.023810e+02,   -5.000000e+00
     572,    2.250000e+02,    2.142857e+02,   -5.000000e+00
     573,    2.250000e+02,    2.261905e+02,   -5.000000e+00
     574,    2.250000e+02,    2.380952e+02,   -5.000000e+00
     575,    2.375000e+02,    1.190476e+01,   -5.000000e+00
     576,    2.375000e+02,    2.380952e+01,   -5.000000e+00
     577,    2.375000e+02,    3.571429e+01,   -5.000000e+00
     578,    2.375000e+02,    4.761905e+01,   -5.000000e+00
     579,    2.375000e+02,    5.952381e+01,   -5.000000e+00
     580,    2.375000e+02,    7.142857e+01,   -5.000000e+00
     581,    2.375000e+02,    8.333333e+01,   -5.000000e+00
     582,    2.375000e+02,    9.523810e+01,   -5.000000e+00
     583,    2.375000e+02,    1.071429e+02,   -5.000000e+00
     584,    2.375000e+02,    1.190476e+02,   -5.000000e+00
     585,    2.375000e+02,    1.309524e+02,   -5.000000e+00
     586,    2.375000e+02,    1.428571e+02,   -5.000000e+00
     587,    2.375000e+02,    1.547619e+02,   -5.000000e+00
     588,    2.375000e+02,    1.666667e+02,   -5.000000e+00
     589,    2.375000e+02,    1.785714e+02,   -5.000000e+00
     590,    2.375000e+02,    1.904762e+02,   -5.000000e+00
     591,    2.375000e+02,    2.023810e+02,   -5.000000e+00
     592,    2.375000e+02,    2.142857e+02,   -5.000000e+00
     593,    2.375000e+02,    2.261905e+02,   -5.000000e+00
     594,    2.375000e+02,    2.380952e+02,   -5.000000e+00
     595,    1.176471e+01,    0.000000e+00,   -5.000000e+00
     596,    2.352941e+01,    0.000000e+00,   -5.000000e+00
     597,    3.529412e+01,    0.000000e+00,   -5.000000e+00
     598,    4.705882e+01,    0.000000e+00,   -5.000000e+00
     599,    5.882353e+01,    0.000000e+00,   -5.000000e+00
     600,    7.058824e+01,    0.000000e+00,   -5.000000e+00
     601,    8.235294e+01,    0.000000e+00,   -5.000000e+00
     602,    9.411765e+01,    0.000000e+00,   -5.000000e+00
     603,    1.058824e+02,    0.000000e+00,   -5.000000e+00
     604,    1.176471e+02,    0.000000e+00,   -5.000000e+00
     605,    1.294118e+02,    0.000000e+00,   -5.000000e+00
     606,    1.411765e+02,    0.000000e+00,   -5.000000e+00
     607,    1.529412e+02,    0.000000e+00,   -5.000000e+00
     608,    1.647059e+02,    0.000000e+00,   -5.000000e+00
     609,    1.764706e+02,    0.000000e+00,   -5.000000e+00
     610,    1.882353e+02,    0.000000e+00,   -5.000000e+00
     611,    1.176471e+01,    2.500000e+02,   -5.000000e+00
     612,    2.352941e+01,    2.500000e+02,   -5.000000e+00
     613,    3.529412e+01,    2.500000e+02,   -5.000000e+00
     614,    4.705882e+01,    2.500000e+02,   -5.000000e+00
     615,    5.882353e+01,    2.500000e+02,   -5.000000e+00
     616,    7.058824e+01,    2.500000e+02,   -5.000000e+00
     617,    8.235294e+01,    2.500000e+02,   -5.000000e+00
     618,    9.411765e+01,    2.500000e+02,   -5.000000e+00
     619,    1.058824e+02,    2.500000e+02,   -5.000000e+00
     620,    1.176471e+02,    2.500000e+02,   -5.000000e+00
     621,    1.294118e+02,    2.500000e+02,   -5.000000e+00
     622,    1.411765e+02,    2.500000e+02,   -5.000000e+00
     623,    1.529412e+02,    2.500000e+02,   -5.000000e+00
     624,    1.647059e+02,    2.500000e+02,   -5.000000e+00
     625,    1.764706e+02,    2.500000e+02,   -5.000000e+00
     626,    1.882353e+02,    2.500000e+02,   -5.000000e+00
     627,    1.882353e+02,    2.380952e+02,   -5.000000e+00
     628,    1.882353e+02,    2.261905e+02,   -5.000000e+00
     629,    1.882353e+02,    2.142857e+02,   -5.000000e+00
     630,    1.882353e+02,    2.023810e+02,   -5.000000e+00
     631,    1.882353e+02,    1.904762e+02,   -5.000000e+00
     632,    1.882353e+02,    1.785714e+02,   -5.000000e+00
     633,    1.882353e+02,    1.666667e+02,   -5.000000e+00
     634,    1.882353e+02,    1.547619e+02,   -5.000000e+00
     635,    1.882353e+02,    1.428571e+02,   -5.000000e+00
     636,    1.882353e+02,    1.309524e+02,   -5.000000e+00
     637,    1.882353e+02,    1.190476e+02,   -5.000000e+00
     638,    1.882353e+02,    1.071429e+02,   -5.000000e+00
     639,    1.882353e+02,    9.523810e+01,   -5.000000e+00
     640,    1.882353e+02,    8.333333e+01,   -5.000000e+00
     641,    1.882353e+02,    7.142857e+01,   -5.000000e+00
     642,    1.882353e+02,    5.952381e+01,   -5.000000e+00
     643,    1.882353e+02,    4.761905e+01,   -5.000000e+00
     644,    1.882353e+02,    3.571429e+01,   -5.000000e+00
     645,    1.882353e+02,    2.380952e+01,   -5.000000e+00
     646,    1.882353e+02,    1.190476e+01,   -5.000000e+00
     647,    1.764706e+02,    2.380952e+02,   -5.000000e+00
     648,    1.764706e+02,    2.261905e+02,   -5.000000e+00
     649,    1.764706e+02,    2.142857e+02,   -5.000000e+00
     650,    1.764706e+02,    2.023810e+02,   -5.000000e+00
     651,    1.764706e+02,    1.904762e+02,   -5.000000e+00
     652,    1.764706e+02,    1.785714e+02,   -5.000000e+00
     653,    1.764706e+02,    1.666667e+02,   -5.000000e+00
     654,    1.764706e+02,    1.547619e+02,   -5.000000e+00
     655,    1.764706e+02,    1.428571e+02,   -5.000000e+00
     656,    1.764706e+02,    1.309524e+02,   -5.000000e+00
     657,    1.764706e+02,    1.190476e+02,   -5.000000e+00
     658,    1.764706e+02,    1.071429e+02,   -5.000000e+00
     659,    1.764706e+02,    9.523810e+01,   -5.000000e+00
     660,    1.764706e+02,    8.333333e+01,   -5.000000e+00
     661,    1.764706e+02,    7.142857e+01,   -5.000000e+00
     662,    1.764706e+02,    5.952381e+01,   -5.000000e+00
     663,    1.764706e+02,    4.761905e+01,   -5.000000e+00
     664,    1.764706e+02,    3.571429e+01,   -5.000000e+00
     665,    1.764706e+02,    2.380952e+01,   -5.000000e+00
     666,    1.764706e+02,    1.190476e+01,   -5.000000e+00
     667,    1.647059e+02,    2.380952e+02,   -5.000000e+00
     668,    1.647059e+02,    2.261905e+02,   -5.000000e+00
     669,    1.647059e+02,    2.142857e+02,   -5.000000e+00
     670,    1.647059e+02,    2.023810e+02,   -5.000000e+00
     671,    1.647059e+02,    1.904762e+02,   -5.000000e+00
     672,    1.647059e+02,    1.785714e+02,   -5.000000e+00
     673,    1.647059e+02,    1.666667e+02,   -5.000000e+00
     674,    1.647059e+02,    1.547619e+02,   -5.000000e+00
     675,    1.647059e+02,    1.428571e+02,   -5.000000e+00
     676,    1.647059e+02,    1.309524e+02,   -5.000000e+00
     677,    1.647059e+02,    1.190476e+02,   -5.000000e+00
     678,    1.647059e+02,    1.071429e+02,   -5.000000e+00
     679,    1.647059e+02,    9.523810e+01,   -5.000000e+00
     680,    1.647059e+02,    8.333333e+01,   -5.000000e+00
     681,    1.647059e+02,    7.142857e+01,   -5.000000e+00
     682,    1.647059e+02,    5.952381e+01,   -5.000000e+00
     683,    1.647059e+02,    4.761905e+01,   -5.000000e+00
     684,    1.647059e+02,    3.571429e+01,   -5.000000e+00
     685,    1.647059e+02,    2.380952e+01,   -5.000000e+00
     686,    1.647059e+02,    1.190476e+01,   -5.000000e+00
     687,    1.529412e+02,    2.380952e+02,   -5.000000e+00
     688,    1.529412e+02,    2.261905e+02,   -5.000000e+00
     689,    1.529412e+02,    2.142857e+02,   -5.000000e+00
     690,    1.529412e+02,    2.023810e+02,   -5.000000e+00
     691,    1.529412e+02,    1.904762e+02,   -5.000000e+00
     692,    1.529412e+02,    1.785714e+02,   -5.000000e+00
     693,    1.529412e+02,    1.666667e+02,   -5.000000e+00
     694,    1.529412e+02,    1.547619e+02,   -5.000000e+00
     695,    1.529412e+02,    1.428571e+02,   -5.000000e+00
     696,    1.529412e+02,    1.309524e+02,   -5.000000e+00
     697,    1.529412e+02,    1.190476e+02,   -5.000000e+00
     698,    1.529412e+02,    1.071429e+02,   -5.000000e+00
     699,    1.529412e+02,    9.523810e+01,   -5.000000e+00
     700,    1.529412e+02,    8.333333e+01,   -5.000000e+00
     701,    1.529412e+02,    7.142857e+01,   -5.000000e+00
     702,    1.529412e+02,    5.952381e+01,   -5.000000e+00
     703,    1.529412e+02,    4.761905e+01,   -5.000000e+00
     704,    1.529412e+02,    3.571429e+01,   -5.000000e+00
     705,    1.529412e+02,    2.380952e+01,   -5.000000e+00
     706,    1.529412e+02,    1.190476e+01,   -5.000000e+00
     707,    1.411765e+02,    2.380952e+02,   -5.000000e+00
     708,    1.411765e+02,    2.261905e+02,   -5.000000e+00
     709,    1.411765e+02,    2.142857e+02,   -5.000000e+00
     710,    1.411765e+02,    2.023810e+02,   -5.000000e+00
     711,    1.411765e+02,    1.904762e+02,   -5.000000e+00
     712,    1.411765e+02,    1.785714e+02,   -5.000000e+00
     713,    1.411765e+02,    1.666667e+02,   -5.000000e+00
     714,    1.411765e+02,    1.547619e+02,   -5.000000e+00
     715,    1.411765e+02,    1.428571e+02,   -5.000000e+00
     716,    1.411765e+02,    1.309524e+02,   -5.000000e+00
     717,    1.411765e+02,    1.190476e+02,   -5.000000e+00
     718,    1.411765e+02,    1.071429e+02,   -5.000000e+00
     719,    1.411765e+02,    9.523810e+01,   -5.000000e+00
     720,    1.411765e+02,    8.333333e+01,   -5.000000e+00
     721,    1.411765e+02,    7.142857e+01,   -5.000000e+00
     722,    1.411765e+02,    5.952381e+01,   -5.000000e+00
     723,    1.411765e+02,    4.761905e+01,   -5.000000e+00
     724,    1.411765e+02,    3.571429e+01,   -5.000000e+00
     725,    1.411765e+02,    2.380952e+01,   -5.000000e+00
     726,    1.411765e+02,    1.190476e+01,   -5.000000e+00
     727,    1.294118e+02,    2.380952e+02,   -5.000000e+00
     728,    1.294118e+02,    2.261905e+02,   -5.000000e+00
     729,    1.294118e+02,    2.142857e+02,   -5.000000e+00
     730,    1.294118e+02,    2.023810e+02,   -5.000000e+00
     731,    1.294118e+02,    1.904762e+02,   -5.000000e+00
     732,    1.294118e+02,    1.785714e+02,   -5.000000e+00
     733,    1.294118e+02,    1.666667e+02,   -5.000000e+00
     734,    1.294118e+02,    1.547619e+02,   -5.000000e+00
     735,    1.294118e+02,    1.428571e+02,   -5.000000e+00
     736,    1.294118e+02,    1.309524e+02,   -5.000000e+00
     737,    1.294118e+02,    1.190476e+02,   -5.000000e+00
     738,    1.294118e+02,    1.071429e+02,   -5.000000e+00
     739,    1.294118e+02,    9.523810e+01,   -5.000000e+00
     740,    1.294118e+02,    8.333333e+01,   -5.000000e+00
     741,    1.294118e+02,    7.142857e+01,   -5.000000e+00
     742,    1.294118e+02,    5.952381e+01,   -5.000000e+00
     743,    1.294118e+02,    4.761905e+01,   -5.000000e+00
     744,    1.294118e+02,    3.571429e+01,   -5.000000e+00
     745,    1.294118e+02,    2.380952e+01,   -5.000000e+00
     746,    1.294118e+02,    1.190476e+01,   -5.000000e+00
     747,    1.176471e+02,    2.380952e+02,   -5.000000e+00
     748,    1.176471e+02,    2.261905e+02,   -5.000000e+00
     749,    1.176471e+02,    2.142857e+02,   -5.000000e+00
     750,    1.176471e+02,    2.023810e+02,   -5.000000e+00
     751,    1.176471e+02,    1.904762e+02,   -5.000000e+00
     752,    1.176471e+02,    1.785714e+02,   -5.000000e+00
     753,    1.176471e+02,    1.666667e+02,   -5.000000e+00
     754,    1.176471e+02,    1.547619e+02,   -5.000000e+00
     755,    1.176471e+02,    1.428571e+02,   -5.000000e+00
     756,    1.176471e+02,    1.309524e+02,   -5.000000e+00
     757,    1.176471e+02,    1.190476e+02,   -5.000000e+00
     758,    1.176471e+02,    1.071429e+02,   -5.000000e+00
     759,    1.176471e+02,    9.523810e+01,   -5.000000e+00
     760,    1.176471e+02,    8.333333e+01,   -5.000000e+00
     761,    1.176471e+02,    7.142857e+01,   -5.000000e+00
     762,    1.176471e+02,    5.952381e+01,   -5.000000e+00
     763,    1.176471e+02,    4.761905e+01,   -5.000000e+00
     764,    1.176471e+02,    3.571429e+01,   -5.000000e+00
     765,    1.176471e+02,    2.380952e+01,   -5.000000e+00
     766,    1.176471e+02,    1.190476e+01,   -5.000000e+00
     767,    1.058824e+02,    2.380952e+02,   -5.000000e+00
     768,    1.058824e+02,    2.261905e+02,   -5.000000e+00
     769,    1.058824e+02,    2.142857e+02,   -5.000000e+00
     770,    1.058824e+02,    2.023810e+02,   -5.000000e+00
     771,    1.058824e+02,    1.904762e+02,   -5.000000e+00
     772,    1.058824e+02,    1.785714e+02,   -5.000000e+00
     773,    1.058824e+02,    1.666667e+02,   -5.000000e+00
     774,    1.058824e+02,    1.547619e+02,   -5.000000e+00
     775,    1.058824e+02,    1.428571e+02,   -5.000000e+00
     776,    1.058824e+02,    1.309524e+02,   -5.000000e+00
     777,    1.058824e+02,    1.190476e+02,   -5.000000e+00
     778,    1.058824e+02,    1.071429e+02,   -5.000000e+00
     779,    1.058824e+02,    9.523810e+01,   -5.000000e+00
     780,    1.058824e+02,    8.333333e+01,   -5.000000e+00
     781,    1.058824e+02,    7.142857e+01,   -5.000000e+00
     782,    1.058824e+02,    5.952381e+01,   -5.000000e+00
     783,    1.058824e+02,    4.761905e+01,   -5.000000e+00
     784,    1.058824e+02,    3.571429e+01,   -5.000000e+00
     785,    1.058824e+02,    2.380952e+01,   -5.000000e+00
     786,    1.058824e+02,    1.190476e+01,   -5.000000e+00
     787,    9.411765e+01,    2.380952e+02,   -5.000000e+00
     788,    9.411765e+01,    2.261905e+02,   -5.000000e+00
     789,    9.411765e+01,    2.142857e+02,   -5.000000e+00
     790,    9.411765e+01,    2.023810e+02,   -5.000000e+00
     791,    9.411765e+01,    1.904762e+02,   -5.000000e+00
     792,    9.411765e+01,    1.785714e+02,   -5.000000e+00
     793,    9.411765e+01,    1.666667e+02,   -5.000000e+00
     794,    9.411765e+01,    1.547619e+02,   -5.000000e+00
     795,    9.411765e+01,    1.428571e+02,   -5.000000e+00
     796,    9.411765e+01,    1.309524e+02,   -5.000000e+00
     797,    9.411765e+01,    1.190476e+02,   -5.000000e+00
     798,    9.411765e+01,    1.071429e+02,   -5.000000e+00
     799,    9.411765e+01,    9.523810e+01,   -5.000000e+00
     800,    9.411765e+01,    8.333333e+01,   -5.000000e+00
     801,    9.411765e+01,    7.142857e+01,   -5.000000e+00
     802,    9.411765e+01,    5.952381e+01,   -5.000000e+00
     803,    9.411765e+01,    4.761905e+01,   -5.000000e+00
     804,    9.411765e+01,    3.571429e+01,   -5.000000e+00
     805,    9.411765e+01,    2.380952e+01,   -5.000000e+00
     806,    9.411765e+01,    1.190476e+01,   -5.000000e+00
     807,    8.235294e+01,    2.380952e+02,   -5.000000e+00
     808,    8.235294e+01,    2.261905e+02,   -5.000000e+00
     809,    8.235294e+01,    2.142857e+02,   -5.000000e+00
     810,    8.235294e+01,    2.023810e+02,   -5.000000e+00
     811,    8.235294e+01,    1.904762e+02,   -5.000000e+00
     812,    8.235294e+01,    1.785714e+02,   -5.000000e+00
     813,    8.235294e+01,    1.666667e+02,   -5.000000e+00
     814,    8.235294e+01,    1.547619e+02,   -5.000000e+00
     815,    8.235294e+01,    1.428571e+02,   -5.000000e+00
     816,    8.235294e+01,    1.309524e+02,   -5.000000e+00
     817,    8.235294e+01,    1.190476e+02,   -5.000000e+00
     818,    8.235294e+01,    1.071429e+02,   -5.000000e+00
     819,    8.235294e+01,    9.523810e+01,   -5.000000e+00
     820,    8.235294e+01,    8.333333e+01,   -5.000000e+00
     821,    8.235294e+01,    7.142857e+01,   -5.000000e+00
     822,    8.235294e+01,    5.952381e+01,   -5.000000e+00
     823,    8.235294e+01,    4.761905e+01,   -5.000000e+00
     824,    8.235294e+01,    3.571429e+01,   -5.000000e+00
     825,    8.235294e+01,    2.380952e+01,   -5.000000e+00
     826,    8.235294e+01,    1.190476e+01,   -5.000000e+00
     827,    7.058824e+01,    2.380952e+02,   -5.000000e+00
     828,    7.058824e+01,    2.261905e+02,   -5.000000e+00
     829,    7.058824e+01,    2.142857e+02,   -5.000000e+00
     830,    7.058824e+01,    2.023810e+02,   -5.000000e+00
     831,    7.058824e+01,    1.904762e+02,   -5.000000e+00
     832,    7.058824e+01,    1.785714e+02,   -5.000000e+00
     833,    7.058824e+01,    1.666667e+02,   -5.000000e+00
     834,    7.058824e+01,    1.547619e+02,   -5.000000e+00
     835,    7.058824e+01,    1.428571e+02,   -5.000000e+00
     836,    7.058824e+01,    1.309524e+02,   -5.000000e+00
     837,    7.058824e+01,    1.190476e+02,   -5.000000e+00
     838,    7.058824e+01,    1.071429e+02,   -5.000000e+00
     839,    7.058824e+01,    9.523810e+01,   -5.000000e+00
     840,    7.058824e+01,    8.333333e+01,   -5.000000e+00
     841,    7.058824e+01,    7.142857e+01,   -5.000000e+00
     842,    7.058824e+01,    5.952381e+01,   -5.000000e+00
     843,    7.058824e+01,    4.761905e+01,   -5.000000e+00
     844,    7.058824e+01,    3.571429e+01,   -5.000000e+00
     845,    7.058824e+01,    2.380952e+01,   -5.000000e+00
     846,    7.058824e+01,    1.190476e+01,   -5.000000e+00
     847,    5.882353e+01,    2.380952e+02,   -5.000000e+00
     848,    5.882353e+01,    2.261905e+02,   -5.000000e+00
     849,    5.882353e+01,    2.142857e+02,   -5.000000e+00
     850,    5.882353e+01,    2.023810e+02,   -5.000000e+00
     851,    5.882353e+01,    1.904762e+02,   -5.000000e+00
     852,    5.882353e+01,    1.785714e+02,   -5.000000e+00
     853,    5.882353e+01,    1.666667e+02,   -5.000000e+00
     854,    5.882353e+01,    1.547619e+02,   -5.000000e+00
     855,    5.882353e+01,    1.428571e+02,   -5.000000e+00
     856,    5.882353e+01,    1.309524e+02,   -5.000000e+00
     857,    5.882353e+01,    1.190476e+02,   -5.000000e+00
     858,    5.882353e+01,    1.071429e+02,   -5.000000e+00
     859,    5.882353e+01,    9.523810e+01,   -5.000000e+00
     860,    5.882353e+01,    8.333333e+01,   -5.000000e+00
     861,    5.882353e+01,    7.142857e+01,   -5.000000e+00
     862,    5.882353e+01,    5.952381e+01,   -5.000000e+00
     863,    5.882353e+01,    4.761905e+01,   -5.000000e+00
     864,    5.882353e+01,    3.571429e+01,   -5.000000e+00
     865,    5.882353e+01,    2.380952e+01,   -5.000000e+00
     866,    5.882353e+01,    1.190476e+01,   -5.000000e+00
     867,    4.705882e+01,    2.380952e+02,   -5.000000e+00
     868,    4.705882e+01,    2.261905e+02,   -5.000000e+00
     869,    4.705882e+01,    2.142857e+02,   -5.000000e+00
     870,    4.705882e+01,    2.023810e+02,   -5.000000e+00
     871,    4.705882e+01,    1.904762e+02,   -5.000000e+00
     872,    4.705882e+01,    1.785714e+02,   -5.000000e+00
     873,    4.705882e+01,    1.666667e+02,   -5.000000e+00
     874,    4.705882e+01,    1.547619e+02,   -5.000000e+00
     875,    4.705882e+01,    1.428571e+02,   -5.000000e+00
     876,    4.705882e+01,    1.309524e+02,   -5.000000e+00
     877,    4.705882e+01,    1.190476e+02,   -5.000000e+00
     878,    4.705882e+01,    1.071429e+02,   -5.000000e+00
     879,    4.705882e+01,    9.523810e+01,   -5.000000e+00
     880,    4.705882e+01,    8.333333e+01,   -5.000000e+00
     881,    4.705882e+01,    7.142857e+01,   -5.000000e+00
     882,    4.705882e+01,    5.952381e+01,   -5.000000e+00
     883,    4.705882e+01,    4.761905e+01,   -5.000000e+00
     884,    4.705882e+01,    3.571429e+01,   -5.000000e+00
     885,    4.705882e+01,    2.380952e+01,   -5.000000e+00
     886,    4.705882e+01,    1.190476e+01,   -5.000000e+00
     887,    3.529412e+01,    2.380952e+02,   -5.000000e+00
     888,    3.529412e+01,    2.261905e+02,   -5.000000e+00
     889,    3.529412e+01,    2.142857e+02,   -5.000000e+00
     890,    3.529412e+01,    2.023810e+02,   -5.000000e+00
     891,    3.529412e+01,    1.904762e+02,   -5.000000e+00
     892,    3.529412e+01,    1.785714e+02,   -5.000000e+00
     893,    3.529412e+01,    1.666667e+02,   -5.000000e+00
     894,    3.529412e+01,    1.547619e+02,   -5.000000e+00
     895,    3.529412e+01,    1.428571e+02,   -5.000000e+00
     896,    3.529412e+01,    1.309524e+02,   -5.000000e+00
     897,    3.529412e+01,    1.190476e+02,   -5.000000e+00
     898,    3.529412e+01,    1.071429e+02,   -5.000000e+00
     899,    3.529412e+01,    9.523810e+01,   -5.000000e+00
     900,    3.529412e+01,    8.333333e+01,   -5.000000e+00
     901,    3.529412e+01,    7.142857e+01,   -5.000000e+00
     902,    3.529412e+01,    5.952381e+01,   -5.000000e+00
     903,    3.529412e+01,    4.761905e+01,   -5.000000e+00
     904,    3.529412e+01,    3.571429e+01,   -5.000000e+00
     905,    3.529412e+01,    2.380952e+01,   -5.000000e+00
     906,    3.529412e+01,    1.190476e+01,   -5.000000e+00
     907,    2.352941e+01,    2.380952e+02,   -5.000000e+00
     908,    2.352941e+01,    2.261905e+02,   -5.000000e+00
     909,    2.352941e+01,    2.142857e+02,   -5.000000e+00
     910,    2.352941e+01,    2.023810e+02,   -5.000000e+00
     911,    2.352941e+01,    1.904762e+02,   -5.000000e+00
     912,    2.352941e+01,    1.785714e+02,   -5.000000e+00
     913,    2.352941e+01,    1.666667e+02,   -5.000000e+00
     914,    2.352941e+01,    1.547619e+02,   -5.000000e+00
     915,    2.352941e+01,    1.428571e+02,   -5.000000e+00
     916,    2.352941e+01,    1.309524e+02,   -5.000000e+00
     917,    2.352941e+01,    1.190476e+02,   -5.000000e+00
     918,    2.352941e+01,    1.071429e+02,   -5.000000e+00
     919,    2.352941e+01,    9.523810e+01,   -5.000000e+00
     920,    2.352941e+01,    8.333333e+01,   -5.000000e+00
     921,    2.352941e+01,    7.142857e+01,   -5.000000e+00
     922,    2.352941e+01,    5.952381e+01,   -5.000000e+00
     923,    2.352941e+01,    4.761905e+01,   -5.000000e+00
     924,    2.352941e+01,    3.571429e+01,   -5.000000e+00
     925,    2.352941e+01,    2.380952e+01,   -5.000000e+00
     926,    2.352941e+01,    1.190476e+01,   -5.000000e+00
     927,    1.176471e+01,    2.380952e+02,   -5.000000e+00
     928,    1.176471e+01,    2.261905e+02,   -5.000000e+00
     929,    1.176471e+01,    2.142857e+02,   -5.000000e+00
     930,    1.176471e+01,    2.023810e+02,   -5.000000e+00
     931,    1.176471e+01,    1.904762e+02,   -5.000000e+00
     932,    1.176471e+01,    1.785714e+02,   -5.000000e+00
     933,    1.176471e+01,    1.666667e+02,   -5.000000e+00
     934,    1.176471e+01,    1.547619e+02,   -5.000000e+00
     935,    1.176471e+01,    1.428571e+02,   -5.000000e+00
     936,    1.176471e+01,    1.309524e+02,   -5.000000e+00
     937,    1.176471e+01,    1.190476e+02,   -5.000000e+00
     938,    1.176471e+01,    1.071429e+02,   -5.000000e+00
     939,    1.176471e+01,    9.523810e+01,   -5.000000e+00
     940,    1.176471e+01,    8.333333e+01,   -5.000000e+00
     941,    1.176471e+01,    7.142857e+01,   -5.000000e+00
     942,    1.176471e+01,    5.952381e+01,   -5.000000e+00
     943,    1.176471e+01,    4.761905e+01,   -5.000000e+00
     944,    1.176471e+01,    3.571429e+01,   -5.000000e+00
     945,    1.176471e+01,    2.380952e+01,   -5.000000e+00
     946,    1.176471e+01,    1.190476e+01,   -5.000000e+00
     947,   -2.500000e+02,   -1.500000e+02,   -5.000000e+00
     948,    0.000000e+00,   -1.500000e+02,   -5.000000e+00
     949,   -2.380952e+02,   -1.500000e+02,   -5.000000e+00
     950,   -2.261905e+02,   -1.500000e+02,   -5.000000e+00
     951,   -2.142857e+02,   -1.500000e+02,   -5.000000e+00
     952,   -2.023810e+02,   -1.500000e+02,   -5.000000e+00
     953,   -1.904762e+02,   -1.500000e+02,   -5.000000e+00
     954,   -1.785714e+02,   -1.500000e+02,   -5.000000e+00
     955,   -1.666667e+02,   -1.500000e+02,   -5.000000e+00
     956,   -1.547619e+02,   -1.500000e+02,   -5.000000e+00
     957,   -1.428571e+02,   -1.500000e+02,   -5.000000e+00
     958,   -1.309524e+02,   -1.500000e+02,   -5.000000e+00
     959,   -1.190476e+02,   -1.500000e+02,   -5.000000e+00
     960,   -1.071429e+02,   -1.500000e+02,   -5.000000e+00
     961,   -9.523810e+01,   -1.500000e+02,   -5.000000e+00
     962,   -8.333333e+01,   -1.500000e+02,   -5.000000e+00
     963,   -7.142857e+01,   -1.500000e+02,   -5.000000e+00
     964,   -5.952381e+01,   -1.500000e+02,   -5.000000e+00
     965,   -4.761905e+01,   -1.500000e+02,   -5.000000e+00
     966,   -3.571429e+01,   -1.500000e+02,   -5.000000e+00
     967,   -2.380952e+01,   -1.500000e+02,   -5.000000e+00
     968,   -1.190476e+01,   -1.500000e+02,   -5.000000e+00
     969,    0.000000e+00,   -2.500000e+02,   -5.000000e+00
     970,    0.000000e+00,   -2.375000e+02,   -5.000000e+00
     971,    0.000000e+00,   -2.250000e+02,   -5.000000e+00
     972,    0.000000e+00,   -2.125000e+02,   -5.000000e+00
     973,    0.000000e+00,   -2.000000e+02,   -5.000000e+00
     974,    0.000000e+00,   -1.875000e+02,   -5.000000e+00
     975,    0.000000e+00,   -1.750000e+02,   -5.000000e+00
     976,    0.000000e+00,   -1.625000e+02,   -5.000000e+00
     977,   -2.500000e+02,   -2.500000e+02,   -5.000000e+00
     978,   -1.190476e+01,   -2.500000e+02,   -5.000000e+00
     979,   -2.380952e+01,   -2.500000e+02,   -5.000000e+00
     980,   -3.571429e+01,   -2.500000e+02,   -5.000000e+00
     981,   -4.761905e+01,   -2.500000e+02,   -5.000000e+00
     982,   -5.952381e+01,   -2.500000e+02,   -5.000000e+00
     983,   -7.142857e+01,   -2.500000e+02,   -5.000000e+00
     984,   -8.333333e+01,   -2.500000e+02,   -5.000000e+00
     985,   -9.523810e+01,   -2.500000e+02,   -5.000000e+00
     986,   -1.071429e+02,   -2.500000e+02,   -5.000000e+00
     987,   -1.190476e+02,   -2.500000e+02,   -5.000000e+00
     988,   -1.309524e+02,   -2.500000e+02,   -5.000000e+00
     989,   -1.428571e+02,   -2.500000e+02,   -5.000000e+00
     990,   -1.547619e+02,   -2.500000e+02,   -5.000000e+00
     991,   -1.666667e+02,   -2.500000e+02,   -5.000000e+00
     992,   -1.785714e+02,   -2.500000e+02,   -5.000000e+00
     993,   -1.904762e+02,   -2.500000e+02,   -5.000000e+00
     994,   -2.023810e+02,   -2.500000e+02,   -5.000000e+00
     995,   -2.142857e+02,   -2.500000e+02,   -5.000000e+00
     996,   -2.261905e+02,   -2.500000e+02,   -5.000000e+00
     997,   -2.380952e+02,   -2.500000e+02,   -5.000000e+00
     998,   -2.500000e+02,   -2.375000e+02,   -5.000000e+00
     999,   -2.500000e+02,   -2.250000e+02,   -5.000000e+00
    1000,   -2.500000e+02,   -2.125000e+02,   -5.000000e+00
    1001,   -2.500000e+02,   -2.000000e+02,   -5.000000e+00
    1002,   -2.500000e+02,   -1.875000e+02,   -5.000000e+00
    1003,   -2.500000e+02,   -1.750000e+02,   -5.000000e+00
    1004,   -2.500000e+02,   -1.625000e+02,   -5.000000e+00
    1005,   -2.380952e+02,   -1.625000e+02,   -5.000000e+00
    1006,   -2.261905e+02,   -1.625000e+02,   -5.000000e+00
    1007,   -2.142857e+02,   -1.625000e+02,   -5.000000e+00
    1008,   -2.023810e+02,   -1.625000e+02,   -5.000000e+00
    1009,   -1.904762e+02,   -1.625000e+02,   -5.000000e+00
    1010,   -1.785714e+02,   -1.625000e+02,   -5.000000e+00
    1011,   -1.666667e+02,   -1.625000e+02,   -5.000000e+00
    1012,   -1.547619e+02,   -1.625000e+02,   -5.000000e+00
    1013,   -1.428571e+02,   -1.625000e+02,   -5.000000e+00
    1014,   -1.309524e+02,   -1.625000e+02,   -5.000000e+00
    1015,   -1.190476e+02,   -1.625000e+02,   -5.000000e+00
    1016,   -1.071429e+02,   -1.625000e+02,   -5.000000e+00
    1017,   -9.523810e+01,   -1.625000e+02,   -5.000000e+00
    1018,   -8.333333e+01,   -1.625000e+02,   -5.000000e+00
    1019,   -7.142857e+01,   -1.625000e+02,   -5.000000e+00
    1020,   -5.952381e+01,   -1.625000e+02,   -5.000000e+00
    1021,   -4.761905e+01,   -1.625000e+02,   -5.000000e+00
    1022,   -3.571429e+01,   -1.625000e+02,   -5.000000e+00
    1023,   -2.380952e+01,   -1.625000e+02,   -5.000000e+00
    1024,   -1.190476e+01,   -1.625000e+02,   -5.000000e+00
    1025,   -2.380952e+02,   -1.750000e+02,   -5.000000e+00
    1026,   -2.261905e+02,   -1.750000e+02,   -5.000000e+00
    1027,   -2.142857e+02,   -1.750000e+02,   -5.000000e+00
    1028,   -2.023810e+02,   -1.750000e+02,   -5.000000e+00
    1029,   -1.904762e+02,   -1.750000e+02,   -5.000000e+00
    1030,   -1.785714e+02,   -1.750000e+02,   -5.000000e+00
    1031,   -1.666667e+02,   -1.750000e+02,   -5.000000e+00
    1032,   -1.547619e+02,   -1.750000e+02,   -5.000000e+00
    1033,   -1.428571e+02,   -1.750000e+02,   -5.000000e+00
    1034,   -1.309524e+02,   -1.750000e+02,   -5.000000e+00
    1035,   -1.190476e+02,   -1.750000e+02,   -5.000000e+00
    1036,   -1.071429e+02,   -1.750000e+02,   -5.000000e+00
    1037,   -9.523810e+01,   -1.750000e+02,   -5.000000e+00
    1038,   -8.333333e+01,   -1.750000e+02,   -5.000000e+00
    1039,   -7.142857e+01,   -1.750000e+02,   -5.000000e+00
    1040,   -5.952381e+01,   -1.750000e+02,   -5.000000e+00
    1041,   -4.761905e+01,   -1.750000e+02,   -5.000000e+00
    1042,   -3.571429e+01,   -1.750000e+02,   -5.000000e+00
    1043,   -2.380952e+01,   -1.750000e+02,   -5.000000e+00
    1044,   -1.190476e+01,   -1.750000e+02,   -5.000000e+00
    1045,   -2.380952e+02,   -1.875000e+02,   -5.000000e+00
    1046,   -2.261905e+02,   -1.875000e+02,   -5.000000e+00
    1047,   -2.142857e+02,   -1.875000e+02,   -5.000000e+00
    1048,   -2.023810e+02,   -1.875000e+02,   -5.000000e+00
    1049,   -1.904762e+02,   -1.875000e+02,   -5.000000e+00
    1050,   -1.785714e+02,   -1.875000e+02,   -5.000000e+00
    1051,   -1.666667e+02,   -1.875000e+02,   -5.000000e+00
    1052,   -1.547619e+02,   -1.875000e+02,   -5.000000e+00
    1053,   -1.428571e+02,   -1.875000e+02,   -5.000000e+00
    1054,   -1.309524e+02,   -1.875000e+02,   -5.000000e+00
    1055,   -1.190476e+02,   -1.875000e+02,   -5.000000e+00
    1056,   -1.071429e+02,   -1.875000e+02,   -5.000000e+00
    1057,   -9.523810e+01,   -1.875000e+02,   -5.000000e+00
    1058,   -8.333333e+01,   -1.875000e+02,   -5.000000e+00
    1059,   -7.142857e+01,   -1.875000e+02,   -5.000000e+00
    1060,   -5.952381e+01,   -1.875000e+02,   -5.000000e+00
    1061,   -4.761905e+01,   -1.875000e+02,   -5.000000e+00
    1062,   -3.571429e+01,   -1.875000e+02,   -5.000000e+00
    1063,   -2.380952e+01,   -1.875000e+02,   -5.000000e+00
    1064,   -1.190476e+01,   -1.875000e+02,   -5.000000e+00
    1065,   -2.380952e+02,   -2.000000e+02,   -5.000000e+00
    1066,   -2.261905e+02,   -2.000000e+02,   -5.000000e+00
    1067,   -2.142857e+02,   -2.000000e+02,   -5.000000e+00
    1068,   -2.023810e+02,   -2.000000e+02,   -5.000000e+00
    1069,   -1.904762e+02,   -2.000000e+02,   -5.000000e+00
    1070,   -1.785714e+02,   -2.000000e+02,   -5.000000e+00
    1071,   -1.666667e+02,   -2.000000e+02,   -5.000000e+00
    1072,   -1.547619e+02,   -2.000000e+02,   -5.000000e+00
    1073,   -1.428571e+02,   -2.000000e+02,   -5.000000e+00
    1074,   -1.309524e+02,   -2.000000e+02,   -5.000000e+00
    1075,   -1.190476e+02,   -2.000000e+02,   -5.000000e+00
    1076,   -1.071429e+02,   -2.000000e+02,   -5.000000e+00
    1077,   -9.523810e+01,   -2.000000e+02,   -5.000000e+00
    1078,   -8.333333e+01,   -2.000000e+02,   -5.000000e+00
    1079,   -7.142857e+01,   -2.000000e+02,   -5.000000e+00
    1080,   -5.952381e+01,   -2.000000e+02,   -5.000000e+00
    1081,   -4.761905e+01,   -2.000000e+02,   -5.000000e+00
    1082,   -3.571429e+01,   -2.000000e+02,   -5.000000e+00
    1083,   -2.380952e+01,   -2.000000e+02,   -5.000000e+00
    1084,   -1.190476e+01,   -2.000000e+02,   -5.000000e+00
    1085,   -2.380952e+02,   -2.125000e+02,   -5.000000e+00
    1086,   -2.261905e+02,   -2.125000e+02,   -5.000000e+00
    1087,   -2.142857e+02,   -2.125000e+02,   -5.000000e+00
    1088,   -2.023810e+02,   -2.125000e+02,   -5.000000e+00
    1089,   -1.904762e+02,   -2.125000e+02,   -5.000000e+00
    1090,   -1.785714e+02,   -2.125000e+02,   -5.000000e+00
    1091,   -1.666667e+02,   -2.125000e+02,   -5.000000e+00
    1092,   -1.547619e+02,   -2.125000e+02,   -5.000000e+00
    1093,   -1.428571e+02,   -2.125000e+02,   -5.000000e+00
    1094,   -1.309524e+02,   -2.125000e+02,   -5.000000e+00
    1095,   -1.190476e+02,   -2.125000e+02,   -5.000000e+00
    1096,   -1.071429e+02,   -2.125000e+02,   -5.000000e+00
    1097,   -9.523810e+01,   -2.125000e+02,   -5.000000e+00
    1098,   -8.333333e+01,   -2.125000e+02,   -5.000000e+00
    1099,   -7.142857e+01,   -2.125000e+02,   -5.000000e+00
    1100,   -5.952381e+01,   -2.125000e+02,   -5.000000e+00
    1101,   -4.761905e+01,   -2.125000e+02,   -5.000000e+00
    1102,   -3.571429e+01,   -2.125000e+02,   -5.000000e+00
    1103,   -2.380952e+01,   -2.125000e+02,   -5.000000e+00
    1104,   -1.190476e+01,   -2.125000e+02,   -5.000000e+00
    1105,   -2.380952e+02,   -2.250000e+02,   -5.000000e+00
    1106,   -2.261905e+02,   -2.250000e+02,   -5.000000e+00
    1107,   -2.142857e+02,   -2.250000e+02,   -5.000000e+00
    1108,   -2.023810e+02,   -2.250000e+02,   -5.000000e+00
    1109,   -1.904762e+02,   -2.250000e+02,   -5.000000e+00
    1110,   -1.785714e+02,   -2.250000e+02,   -5.000000e+00
    1111,   -1.666667e+02,   -2.250000e+02,   -5.000000e+00
    1112,   -1.547619e+02,   -2.250000e+02,   -5.000000e+00
    1113,   -1.428571e+02,   -2.250000e+02,   -5.000000e+00
    1114,   -1.309524e+02,   -2.250000e+02,   -5.000000e+00
    1115,   -1.190476e+02,   -2.250000e+02,   -5.000000e+00
    1116,   -1.071429e+02,   -2.250000e+02,   -5.000000e+00
    1117,   -9.523810e+01,   -2.250000e+02,   -5.000000e+00
    1118,   -8.333333e+01,   -2.250000e+02,   -5.000000e+00
    1119,   -7.142857e+01,   -2.250000e+02,   -5.000000e+00
    1120,   -5.952381e+01,   -2.250000e+02,   -5.000000e+00
    1121,   -4.761905e+01,   -2.250000e+02,   -5.000000e+00
    1122,   -3.571429e+01,   -2.250000e+02,   -5.000000e+00
    1123,   -2.380952e+01,   -2.250000e+02,   -5.000000e+00
    1124,   -1.190476e+01,   -2.250000e+02,   -5.000000e+00
    1125,   -2.380952e+02,   -2.375000e+02,   -5.000000e+00
    1126,   -2.261905e+02,   -2.375000e+02,   -5.000000e+00
    1127,   -2.142857e+02,   -2.375000e+02,   -5.000000e+00
    1128,   -2.023810e+02,   -2.375000e+02,   -5.000000e+00
    1129,   -1.904762e+02,   -2.375000e+02,   -5.000000e+00
    1130,   -1.785714e+02,   -2.375000e+02,   -5.000000e+00
    1131,   -1.666667e+02,   -2.375000e+02,   -5.000000e+00
    1132,   -1.547619e+02,   -2.375000e+02,   -5.000000e+00
    1133,   -1.428571e+02,   -2.375000e+02,   -5.000000e+00
    1134,   -1.309524e+02,   -2.375000e+02,   -5.000000e+00
    1135,   -1.190476e+02,   -2.375000e+02,   -5.000000e+00
    1136,   -1.071429e+02,   -2.375000e+02,   -5.000000e+00
    1137,   -9.523810e+01,   -2.375000e+02,   -5.000000e+00
    1138,   -8.333333e+01,   -2.375000e+02,   -5.000000e+00
    1139,   -7.142857e+01,   -2.375000e+02,   -5.000000e+00
    1140,   -5.952381e+01,   -2.375000e+02,   -5.000000e+00
    1141,   -4.761905e+01,   -2.375000e+02,   -5.000000e+00
    1142,   -3.571429e+01,   -2.375000e+02,   -5.000000e+00
    1143,   -2.380952e+01,   -2.375000e+02,   -5.000000e+00
    1144,   -1.190476e+01,   -2.375000e+02,   -5.000000e+00
    1145,   -2.500000e+02,   -1.384615e+02,   -5.000000e+00
    1146,   -2.500000e+02,   -1.269231e+02,   -5.000000e+00
    1147,   -2.500000e+02,   -1.153846e+02,   -5.000000e+00
    1148,   -2.500000e+02,   -1.038462e+02,   -5.000000e+00
    1149,   -2.500000e+02,   -9.230769e+01,   -5.000000e+00
    1150,   -2.500000e+02,   -8.076923e+01,   -5.000000e+00
    1151,   -2.500000e+02,   -6.923077e+01,   -5.000000e+00
    1152,   -2.500000e+02,   -5.769231e+01,   -5.000000e+00
    1153,   -2.500000e+02,   -4.615385e+01,   -5.000000e+00
    1154,   -2.500000e+02,   -3.461538e+01,   -5.000000e+00
    1155,   -2.500000e+02,   -2.307692e+01,   -5.000000e+00
    1156,   -2.500000e+02,   -1.153846e+01,   -5.000000e+00
    1157,    0.000000e+00,   -1.384615e+02,   -5.000000e+00
    1158,    0.000000e+00,   -1.269231e+02,   -5.000000e+00
    1159,    0.000000e+00,   -1.153846e+02,   -5.000000e+00
    1160,    0.000000e+00,   -1.038462e+02,   -5.000000e+00
    1161,    0.000000e+00,   -9.230769e+01,   -5.000000e+00
    1162,    0.000000e+00,   -8.076923e+01,   -5.000000e+00
    1163,    0.000000e+00,   -6.923077e+01,   -5.000000e+00
    1164,    0.000000e+00,   -5.769231e+01,   -5.000000e+00
    1165,    0.000000e+00,   -4.615385e+01,   -5.000000e+00
    1166,    0.000000e+00,   -3.461538e+01,   -5.000000e+00
    1167,    0.000000e+00,   -2.307692e+01,   -5.000000e+00
    1168,    0.000000e+00,   -1.153846e+01,   -5.000000e+00
    1169,   -1.190476e+01,   -1.384615e+02,   -5.000000e+00
    1170,   -2.380952e+01,   -1.384615e+02,   -5.000000e+00
    1171,   -3.571429e+01,   -1.384615e+02,   -5.000000e+00
    1172,   -4.761905e+01,   -1.384615e+02,   -5.000000e+00
    1173,   -5.952381e+01,   -1.384615e+02,   -5.000000e+00
    1174,   -7.142857e+01,   -1.384615e+02,   -5.000000e+00
    1175,   -8.333333e+01,   -1.384615e+02,   -5.000000e+00
    1176,   -9.523810e+01,   -1.384615e+02,   -5.000000e+00
    1177,   -1.071429e+02,   -1.384615e+02,   -5.000000e+00
    1178,   -1.190476e+02,   -1.384615e+02,   -5.000000e+00
    1179,   -1.309524e+02,   -1.384615e+02,   -5.000000e+00
    1180,   -1.428571e+02,   -1.384615e+02,   -5.000000e+00
    1181,   -1.547619e+02,   -1.384615e+02,   -5.000000e+00
    1182,   -1.666667e+02,   -1.384615e+02,   -5.000000e+00
    1183,   -1.785714e+02,   -1.384615e+02,   -5.000000e+00
    1184,   -1.904762e+02,   -1.384615e+02,   -5.000000e+00
    1185,   -2.023810e+02,   -1.384615e+02,   -5.000000e+00
    1186,   -2.142857e+02,   -1.384615e+02,   -5.000000e+00
    1187,   -2.261905e+02,   -1.384615e+02,   -5.000000e+00
    1188,   -2.380952e+02,   -1.384615e+02,   -5.000000e+00
    1189,   -1.190476e+01,   -1.269231e+02,   -5.000000e+00
    1190,   -2.380952e+01,   -1.269231e+02,   -5.000000e+00
    1191,   -3.571429e+01,   -1.269231e+02,   -5.000000e+00
    1192,   -4.761905e+01,   -1.269231e+02,   -5.000000e+00
    1193,   -5.952381e+01,   -1.269231e+02,   -5.000000e+00
    1194,   -7.142857e+01,   -1.269231e+02,   -5.000000e+00
    1195,   -8.333333e+01,   -1.269231e+02,   -5.000000e+00
    1196,   -9.523810e+01,   -1.269231e+02,   -5.000000e+00
    1197,   -1.071429e+02,   -1.269231e+02,   -5.000000e+00
    1198,   -1.190476e+02,   -1.269231e+02,   -5.000000e+00
    1199,   -1.309524e+02,   -1.269231e+02,   -5.000000e+00
    1200,   -1.428571e+02,   -1.269231e+02,   -5.000000e+00
    1201,   -1.547619e+02,   -1.269231e+02,   -5.000000e+00
    1202,   -1.666667e+02,   -1.269231e+02,   -5.000000e+00
    1203,   -1.785714e+02,   -1.269231e+02,   -5.000000e+00
    1204,   -1.904762e+02,   -1.269231e+02,   -5.000000e+00
    1205,   -2.023810e+02,   -1.269231e+02,   -5.000000e+00
    1206,   -2.142857e+02,   -1.269231e+02,   -5.000000e+00
    1207,   -2.261905e+02,   -1.269231e+02,   -5.000000e+00
    1208,   -2.380952e+02,   -1.269231e+02,   -5.000000e+00
    1209,   -1.190476e+01,   -1.153846e+02,   -5.000000e+00
    1210,   -2.380952e+01,   -1.153846e+02,   -5.000000e+00
    1211,   -3.571429e+01,   -1.153846e+02,   -5.000000e+00
    1212,   -4.761905e+01,   -1.153846e+02,   -5.000000e+00
    1213,   -5.952381e+01,   -1.153846e+02,   -5.000000e+00
    1214,   -7.142857e+01,   -1.153846e+02,   -5.000000e+00
    1215,   -8.333333e+01,   -1.153846e+02,   -5.000000e+00
    1216,   -9.523810e+01,   -1.153846e+02,   -5.000000e+00
    1217,   -1.071429e+02,   -1.153846e+02,   -5.000000e+00
    1218,   -1.190476e+02,   -1.153846e+02,   -5.000000e+00
    1219,   -1.309524e+02,   -1.153846e+02,   -5.000000e+00
    1220,   -1.428571e+02,   -1.153846e+02,   -5.000000e+00
    1221,   -1.547619e+02,   -1.153846e+02,   -5.000000e+00
    1222,   -1.666667e+02,   -1.153846e+02,   -5.000000e+00
    1223,   -1.785714e+02,   -1.153846e+02,   -5.000000e+00
    1224,   -1.904762e+02,   -1.153846e+02,   -5.000000e+00
    1225,   -2.023810e+02,   -1.153846e+02,   -5.000000e+00
    1226,   -2.142857e+02,   -1.153846e+02,   -5.000000e+00
    1227,   -2.261905e+02,   -1.153846e+02,   -5.000000e+00
    1228,   -2.380952e+02,   -1.153846e+02,   -5.000000e+00
    1229,   -1.190476e+01,   -1.038462e+02,   -5.000000e+00
    1230,   -2.380952e+01,   -1.038462e+02,   -5.000000e+00
    1231,   -3.571429e+01,   -1.038462e+02,   -5.000000e+00
    1232,   -4.761905e+01,   -1.038462e+02,   -5.000000e+00
    1233,   -5.952381e+01,   -1.038462e+02,   -5.000000e+00
    1234,   -7.142857e+01,   -1.038462e+02,   -5.000000e+00
    1235,   -8.333333e+01,   -1.038462e+02,   -5.000000e+00
    1236,   -9.523810e+01,   -1.038462e+02,   -5.000000e+00
    1237,   -1.071429e+02,   -1.038462e+02,   -5.000000e+00
    1238,   -1.190476e+02,   -1.038462e+02,   -5.000000e+00
    1239,   -1.309524e+02,   -1.038462e+02,   -5.000000e+00
    1240,   -1.428571e+02,   -1.038462e+02,   -5.000000e+00
    1241,   -1.547619e+02,   -1.038462e+02,   -5.000000e+00
    1242,   -1.666667e+02,   -1.038462e+02,   -5.000000e+00
    1243,   -1.785714e+02,   -1.038462e+02,   -5.000000e+00
    1244,   -1.904762e+02,   -1.038462e+02,   -5.000000e+00
    1245,   -2.023810e+02,   -1.038462e+02,   -5.000000e+00
    1246,   -2.142857e+02,   -1.038462e+02,   -5.000000e+00
    1247,   -2.261905e+02,   -1.038462e+02,   -5.000000e+00
    1248,   -2.380952e+02,   -1.038462e+02,   -5.000000e+00
    1249,   -1.190476e+01,   -9.230769e+01,   -5.000000e+00
    1250,   -2.380952e+01,   -9.230769e+01,   -5.000000e+00
    1251,   -3.571429e+01,   -9.230769e+01,   -5.000000e+00
    1252,   -4.761905e+01,   -9.230769e+01,   -5.000000e+00
    1253,   -5.952381e+01,   -9.230769e+01,   -5.000000e+00
    1254,   -7.142857e+01,   -9.230769e+01,   -5.000000e+00
    1255,   -8.333333e+01,   -9.230769e+01,   -5.000000e+00
    1256,   -9.523810e+01,   -9.230769e+01,   -5.000000e+00
    1257,   -1.071429e+02,   -9.230769e+01,   -5.000000e+00
    1258,   -1.190476e+02,   -9.230769e+01,   -5.000000e+00
    1259,   -1.309524e+02,   -9.230769e+01,   -5.000000e+00
    1260,   -1.428571e+02,   -9.230769e+01,   -5.000000e+00
    1261,   -1.547619e+02,   -9.230769e+01,   -5.000000e+00
    1262,   -1.666667e+02,   -9.230769e+01,   -5.000000e+00
    1263,   -1.785714e+02,   -9.230769e+01,   -5.000000e+00
    1264,   -1.904762e+02,   -9.230769e+01,   -5.000000e+00
    1265,   -2.023810e+02,   -9.230769e+01,   -5.000000e+00
    1266,   -2.142857e+02,   -9.230769e+01,   -5.000000e+00
    1267,   -2.261905e+02,   -9.230769e+01,   -5.000000e+00
    1268,   -2.380952e+02,   -9.230769e+01,   -5.000000e+00
    1269,   -1.190476e+01,   -8.076923e+01,   -5.000000e+00
    1270,   -2.380952e+01,   -8.076923e+01,   -5.000000e+00
    1271,   -3.571429e+01,   -8.076923e+01,   -5.000000e+00
    1272,   -4.761905e+01,   -8.076923e+01,   -5.000000e+00
    1273,   -5.952381e+01,   -8.076923e+01,   -5.000000e+00
    1274,   -7.142857e+01,   -8.076923e+01,   -5.000000e+00
    1275,   -8.333333e+01,   -8.076923e+01,   -5.000000e+00
    1276,   -9.523810e+01,   -8.076923e+01,   -5.000000e+00
    1277,   -1.071429e+02,   -8.076923e+01,   -5.000000e+00
    1278,   -1.190476e+02,   -8.076923e+01,   -5.000000e+00
    1279,   -1.309524e+02,   -8.076923e+01,   -5.000000e+00
    1280,   -1.428571e+02,   -8.076923e+01,   -5.000000e+00
    1281,   -1.547619e+02,   -8.076923e+01,   -5.000000e+00
    1282,   -1.666667e+02,   -8.076923e+01,   -5.000000e+00
    1283,   -1.785714e+02,   -8.076923e+01,   -5.000000e+00
    1284,   -1.904762e+02,   -8.076923e+01,   -5.000000e+00
    1285,   -2.023810e+02,   -8.076923e+01,   -5.000000e+00
    1286,   -2.142857e+02,   -8.076923e+01,   -5.000000e+00
    1287,   -2.261905e+02,   -8.076923e+01,   -5.000000e+00
    1288,   -2.380952e+02,   -8.076923e+01,   -5.000000e+00
    1289,   -1.190476e+01,   -6.923077e+01,   -5.000000e+00
    1290,   -2.380952e+01,   -6.923077e+01,   -5.000000e+00
    1291,   -3.571429e+01,   -6.923077e+01,   -5.000000e+00
    1292,   -4.761905e+01,   -6.923077e+01,   -5.000000e+00
    1293,   -5.952381e+01,   -6.923077e+01,   -5.000000e+00
    1294,   -7.142857e+01,   -6.923077e+01,   -5.000000e+00
    1295,   -8.333333e+01,   -6.923077e+01,   -5.000000e+00
    1296,   -9.523810e+01,   -6.923077e+01,   -5.000000e+00
    1297,   -1.071429e+02,   -6.923077e+01,   -5.000000e+00
    1298,   -1.190476e+02,   -6.923077e+01,   -5.000000e+00
    1299,   -1.309524e+02,   -6.923077e+01,   -5.000000e+00
    1300,   -1.428571e+02,   -6.923077e+01,   -5.000000e+00
    1301,   -1.547619e+02,   -6.923077e+01,   -5.000000e+00
    1302,   -1.666667e+02,   -6.923077e+01,   -5.000000e+00
    1303,   -1.785714e+02,   -6.923077e+01,   -5.000000e+00
    1304,   -1.904762e+02,   -6.923077e+01,   -5.000000e+00
    1305,   -2.023810e+02,   -6.923077e+01,   -5.000000e+00
    1306,   -2.142857e+02,   -6.923077e+01,   -5.000000e+00
    1307,   -2.261905e+02,   -6.923077e+01,   -5.000000e+00
    1308,   -2.380952e+02,   -6.923077e+01,   -5.000000e+00
    1309,   -1.190476e+01,   -5.769231e+01,   -5.000000e+00
    1310,   -2.380952e+01,   -5.769231e+01,   -5.000000e+00
    1311,   -3.571429e+01,   -5.769231e+01,   -5.000000e+00
    1312,   -4.761905e+01,   -5.769231e+01,   -5.000000e+00
    1313,   -5.952381e+01,   -5.769231e+01,   -5.000000e+00
    1314,   -7.142857e+01,   -5.769231e+01,   -5.000000e+00
    1315,   -8.333333e+01,   -5.769231e+01,   -5.000000e+00
    1316,   -9.523810e+01,   -5.769231e+01,   -5.000000e+00
    1317,   -1.071429e+02,   -5.769231e+01,   -5.000000e+00
    1318,   -1.190476e+02,   -5.769231e+01,   -5.000000e+00
    1319,   -1.309524e+02,   -5.769231e+01,   -5.000000e+00
    1320,   -1.428571e+02,   -5.769231e+01,   -5.000000e+00
    1321,   -1.547619e+02,   -5.769231e+01,   -5.000000e+00
    1322,   -1.666667e+02,   -5.769231e+01,   -5.000000e+00
    1323,   -1.785714e+02,   -5.769231e+01,   -5.000000e+00
    1324,   -1.904762e+02,   -5.769231e+01,   -5.000000e+00
    1325,   -2.023810e+02,   -5.769231e+01,   -5.000000e+00
    1326,   -2.142857e+02,   -5.769231e+01,   -5.000000e+00
    1327,   -2.261905e+02,   -5.769231e+01,   -5.000000e+00
    1328,   -2.380952e+02,   -5.769231e+01,   -5.000000e+00
    1329,   -1.190476e+01,   -4.615385e+01,   -5.000000e+00
    1330,   -2.380952e+01,   -4.615385e+01,   -5.000000e+00
    1331,   -3.571429e+01,   -4.615385e+01,   -5.000000e+00
    1332,   -4.761905e+01,   -4.615385e+01,   -5.000000e+00
    1333,   -5.952381e+01,   -4.615385e+01,   -5.000000e+00
    1334,   -7.142857e+01,   -4.615385e+01,   -5.000000e+00
    1335,   -8.333333e+01,   -4.615385e+01,   -5.000000e+00
    1336,   -9.523810e+01,   -4.615385e+01,   -5.000000e+00
    1337,   -1.071429e+02,   -4.615385e+01,   -5.000000e+00
    1338,   -1.190476e+02,   -4.615385e+01,   -5.000000e+00
    1339,   -1.309524e+02,   -4.615385e+01,   -5.000000e+00
    1340,   -1.428571e+02,   -4.615385e+01,   -5.000000e+00
    1341,   -1.547619e+02,   -4.615385e+01,   -5.000000e+00
    1342,   -1.666667e+02,   -4.615385e+01,   -5.000000e+00
    1343,   -1.785714e+02,   -4.615385e+01,   -5.000000e+00
    1344,   -1.904762e+02,   -4.615385e+01,   -5.000000e+00
    1345,   -2.023810e+02,   -4.615385e+01,   -5.000000e+00
    1346,   -2.142857e+02,   -4.615385e+01,   -5.000000e+00
    1347,   -2.261905e+02,   -4.615385e+01,   -5.000000e+00
    1348,   -2.380952e+02,   -4.615385e+01,   -5.000000e+00
    1349,   -1.190476e+01,   -3.461538e+01,   -5.000000e+00
    1350,   -2.380952e+01,   -3.461538e+01,   -5.000000e+00
    1351,   -3.571429e+01,   -3.461538e+01,   -5.000000e+00
    1352,   -4.761905e+01,   -3.461538e+01,   -5.000000e+00
    1353,   -5.952381e+01,   -3.461538e+01,   -5.000000e+00
    1354,   -7.142857e+01,   -3.461538e+01,   -5.000000e+00
    1355,   -8.333333e+01,   -3.461538e+01,   -5.000000e+00
    1356,   -9.523810e+01,   -3.461538e+01,   -5.000000e+00
    1357,   -1.071429e+02,   -3.461538e+01,   -5.000000e+00
    1358,   -1.190476e+02,   -3.461538e+01,   -5.000000e+00
    1359,   -1.309524e+02,   -3.461538e+01,   -5.000000e+00
    1360,   -1.428571e+02,   -3.461538e+01,   -5.000000e+00
    1361,   -1.547619e+02,   -3.461538e+01,   -5.000000e+00
    1362,   -1.666667e+02,   -3.461538e+01,   -5.000000e+00
    1363,   -1.785714e+02,   -3.461538e+01,   -5.000000e+00
    1364,   -1.904762e+02,   -3.461538e+01,   -5.000000e+00
    1365,   -2.023810e+02,   -3.461538e+01,   -5.000000e+00
    1366,   -2.142857e+02,   -3.461538e+01,   -5.000000e+00
    1367,   -2.261905e+02,   -3.461538e+01,   -5.000000e+00
    1368,   -2.380952e+02,   -3.461538e+01,   -5.000000e+00
    1369,   -1.190476e+01,   -2.307692e+01,   -5.000000e+00
    1370,   -2.380952e+01,   -2.307692e+01,   -5.000000e+00
    1371,   -3.571429e+01,   -2.307692e+01,   -5.000000e+00
    1372,   -4.761905e+01,   -2.307692e+01,   -5.000000e+00
    1373,   -5.952381e+01,   -2.307692e+01,   -5.000000e+00
    1374,   -7.142857e+01,   -2.307692e+01,   -5.000000e+00
    1375,   -8.333333e+01,   -2.307692e+01,   -5.000000e+00
    1376,   -9.523810e+01,   -2.307692e+01,   -5.000000e+00
    1377,   -1.071429e+02,   -2.307692e+01,   -5.000000e+00
    1378,   -1.190476e+02,   -2.307692e+01,   -5.000000e+00
    1379,   -1.309524e+02,   -2.307692e+01,   -5.000000e+00
    1380,   -1.428571e+02,   -2.307692e+01,   -5.000000e+00
    1381,   -1.547619e+02,   -2.307692e+01,   -5.000000e+00
    1382,   -1.666667e+02,   -2.307692e+01,   -5.000000e+00
    1383,   -1.785714e+02,   -2.307692e+01,   -5.000000e+00
    1384,   -1.904762e+02,   -2.307692e+01,   -5.000000e+00
    1385,   -2.023810e+02,   -2.307692e+01,   -5.000000e+00
    1386,   -2.142857e+02,   -2.307692e+01,   -5.000000e+00
    1387,   -2.261905e+02,   -2.307692e+01,   -5.000000e+00
    1388,   -2.380952e+02,   -2.307692e+01,   -5.000000e+00
    1389,   -1.190476e+01,   -1.153846e+01,   -5.000000e+00
    1390,   -2.380952e+01,   -1.153846e+01,   -5.000000e+00
    1391,   -3.571429e+01,   -1.153846e+01,   -5.000000e+00
    1392,   -4.761905e+01,   -1.153846e+01,   -5.000000e+00
    1393,   -5.952381e+01,   -1.153846e+01,   -5.000000e+00
    1394,   -7.142857e+01,   -1.153846e+01,   -5.000000e+00
    1395,   -8.333333e+01,   -1.153846e+01,   -5.000000e+00
    1396,   -9.523810e+01,   -1.153846e+01,   -5.000000e+00
    1397,   -1.071429e+02,   -1.153846e+01,   -5.000000e+00
    1398,   -1.190476e+02,   -1.153846e+01,   -5.000000e+00
    1399,   -1.309524e+02,   -1.153846e+01,   -5.000000e+00
    1400,   -1.428571e+02,   -1.153846e+01,   -5.000000e+00
    1401,   -1.547619e+02,   -1.153846e+01,   -5.000000e+00
    1402,   -1.666667e+02,   -1.153846e+01,   -5.000000e+00
    1403,   -1.785714e+02,   -1.153846e+01,   -5.000000e+00
    1404,   -1.904762e+02,   -1.153846e+01,   -5.000000e+00
    1405,   -2.023810e+02,   -1.153846e+01,   -5.000000e+00
    1406,   -2.142857e+02,   -1.153846e+01,   -5.000000e+00
    1407,   -2.261905e+02,   -1.153846e+01,   -5.000000e+00
    1408,   -2.380952e+02,   -1.153846e+01,   -5.000000e+00
    1409,   -2.500000e+02,   -1.500000e+02,    5.000000e+00
    1410,   -2.500000e+02,   -2.500000e+02,    5.000000e+00
    1411,   -2.500000e+02,   -1.625000e+02,    5.000000e+00
    1412,   -2.500000e+02,   -1.750000e+02,    5.000000e+00
    1413,   -2.500000e+02,   -1.875000e+02,    5.000000e+00
    1414,   -2.500000e+02,   -2.000000e+02,    5.000000e+00
    1415,   -2.500000e+02,   -2.125000e+02,    5.000000e+00
    1416,   -2.500000e+02,   -2.250000e+02,    5.000000e+00
    1417,   -2.500000e+02,   -2.375000e+02,    5.000000e+00
    1418,    0.000000e+00,   -2.500000e+02,    5.000000e+00
    1419,   -2.380952e+02,   -2.500000e+02,    5.000000e+00
    1420,   -2.261905e+02,   -2.500000e+02,    5.000000e+00
    1421,   -2.142857e+02,   -2.500000e+02,    5.000000e+00
    1422,   -2.023810e+02,   -2.500000e+02,    5.000000e+00
    1423,   -1.904762e+02,   -2.500000e+02,    5.000000e+00
    1424,   -1.785714e+02,   -2.500000e+02,    5.000000e+00
    1425,   -1.666667e+02,   -2.500000e+02,    5.000000e+00
    1426,   -1.547619e+02,   -2.500000e+02,    5.000000e+00
    1427,   -1.428571e+02,   -2.500000e+02,    5.000000e+00
    1428,   -1.309524e+02,   -2.500000e+02,    5.000000e+00
    1429,   -1.190476e+02,   -2.500000e+02,    5.000000e+00
    1430,   -1.071429e+02,   -2.500000e+02,    5.000000e+00
    1431,   -9.523810e+01,   -2.500000e+02,    5.000000e+00
    1432,   -8.333333e+01,   -2.500000e+02,    5.000000e+00
    1433,   -7.142857e+01,   -2.500000e+02,    5.000000e+00
    1434,   -5.952381e+01,   -2.500000e+02,    5.000000e+00
    1435,   -4.761905e+01,   -2.500000e+02,    5.000000e+00
    1436,   -3.571429e+01,   -2.500000e+02,    5.000000e+00
    1437,   -2.380952e+01,   -2.500000e+02,    5.000000e+00
    1438,   -1.190476e+01,   -2.500000e+02,    5.000000e+00
    1439,    0.000000e+00,   -1.500000e+02,    5.000000e+00
    1440,    0.000000e+00,   -1.625000e+02,    5.000000e+00
    1441,    0.000000e+00,   -1.750000e+02,    5.000000e+00
    1442,    0.000000e+00,   -1.875000e+02,    5.000000e+00
    1443,    0.000000e+00,   -2.000000e+02,    5.000000e+00
    1444,    0.000000e+00,   -2.125000e+02,    5.000000e+00
    1445,    0.000000e+00,   -2.250000e+02,    5.000000e+00
    1446,    0.000000e+00,   -2.375000e+02,    5.000000e+00
    1447,   -1.190476e+01,   -1.500000e+02,    5.000000e+00
    1448,   -2.380952e+01,   -1.500000e+02,    5.000000e+00
    1449,   -3.571429e+01,   -1.500000e+02,    5.000000e+00
    1450,   -4.761905e+01,   -1.500000e+02,    5.000000e+00
    1451,   -5.952381e+01,   -1.500000e+02,    5.000000e+00
    1452,   -7.142857e+01,   -1.500000e+02,    5.000000e+00
    1453,   -8.333333e+01,   -1.500000e+02,    5.000000e+00
    1454,   -9.523810e+01,   -1.500000e+02,    5.000000e+00
    1455,   -1.071429e+02,   -1.500000e+02,    5.000000e+00
    1456,   -1.190476e+02,   -1.500000e+02,    5.000000e+00
    1457,   -1.309524e+02,   -1.500000e+02,    5.000000e+00
    1458,   -1.428571e+02,   -1.500000e+02,    5.000000e+00
    1459,   -1.547619e+02,   -1.500000e+02,    5.000000e+00
    1460,   -1.666667e+02,   -1.500000e+02,    5.000000e+00
    1461,   -1.785714e+02,   -1.500000e+02,    5.000000e+00
    1462,   -1.904762e+02,   -1.500000e+02,    5.000000e+00
    1463,   -2.023810e+02,   -1.500000e+02,    5.000000e+00
    1464,   -2.142857e+02,   -1.500000e+02,    5.000000e+00
    1465,   -2.261905e+02,   -1.500000e+02,    5.000000e+00
    1466,   -2.380952e+02,   -1.500000e+02,    5.000000e+00
    1467,   -2.380952e+02,   -1.625000e+02,    5.000000e+00
    1468,   -2.261905e+02,   -1.625000e+02,    5.000000e+00
    1469,   -2.142857e+02,   -1.625000e+02,    5.000000e+00
    1470,   -2.023810e+02,   -1.625000e+02,    5.000000e+00
    1471,   -1.904762e+02,   -1.625000e+02,    5.000000e+00
    1472,   -1.785714e+02,   -1.625000e+02,    5.000000e+00
    1473,   -1.666667e+02,   -1.625000e+02,    5.000000e+00
    1474,   -1.547619e+02,   -1.625000e+02,    5.000000e+00
    1475,   -1.428571e+02,   -1.625000e+02,    5.000000e+00
    1476,   -1.309524e+02,   -1.625000e+02,    5.000000e+00
    1477,   -1.190476e+02,   -1.625000e+02,    5.000000e+00
    1478,   -1.071429e+02,   -1.625000e+02,    5.000000e+00
    1479,   -9.523810e+01,   -1.625000e+02,    5.000000e+00
    1480,   -8.333333e+01,   -1.625000e+02,    5.000000e+00
    1481,   -7.142857e+01,   -1.625000e+02,    5.000000e+00
    1482,   -5.952381e+01,   -1.625000e+02,    5.000000e+00
    1483,   -4.761905e+01,   -1.625000e+02,    5.000000e+00
    1484,   -3.571429e+01,   -1.625000e+02,    5.000000e+00
    1485,   -2.380952e+01,   -1.625000e+02,    5.000000e+00
    1486,   -1.190476e+01,   -1.625000e+02,    5.000000e+00
    1487,   -2.380952e+02,   -1.750000e+02,    5.000000e+00
    1488,   -2.261905e+02,   -1.750000e+02,    5.000000e+00
    1489,   -2.142857e+02,   -1.750000e+02,    5.000000e+00
    1490,   -2.023810e+02,   -1.750000e+02,    5.000000e+00
    1491,   -1.904762e+02,   -1.750000e+02,    5.000000e+00
    1492,   -1.785714e+02,   -1.750000e+02,    5.000000e+00
    1493,   -1.666667e+02,   -1.750000e+02,    5.000000e+00
    1494,   -1.547619e+02,   -1.750000e+02,    5.000000e+00
    1495,   -1.428571e+02,   -1.750000e+02,    5.000000e+00
    1496,   -1.309524e+02,   -1.750000e+02,    5.000000e+00
    1497,   -1.190476e+02,   -1.750000e+02,    5.000000e+00
    1498,   -1.071429e+02,   -1.750000e+02,    5.000000e+00
    1499,   -9.523810e+01,   -1.750000e+02,    5.000000e+00
    1500,   -8.333333e+01,   -1.750000e+02,    5.000000e+00
    1501,   -7.142857e+01,   -1.750000e+02,    5.000000e+00
    1502,   -5.952381e+01,   -1.750000e+02,    5.000000e+00
    1503,   -4.761905e+01,   -1.750000e+02,    5.000000e+00
    1504,   -3.571429e+01,   -1.750000e+02,    5.000000e+00
    1505,   -2.380952e+01,   -1.750000e+02,    5.000000e+00
    1506,   -1.190476e+01,   -1.750000e+02,    5.000000e+00
    1507,   -2.380952e+02,   -1.875000e+02,    5.000000e+00
    1508,   -2.261905e+02,   -1.875000e+02,    5.000000e+00
    1509,   -2.142857e+02,   -1.875000e+02,    5.000000e+00
    1510,   -2.023810e+02,   -1.875000e+02,    5.000000e+00
    1511,   -1.904762e+02,   -1.875000e+02,    5.000000e+00
    1512,   -1.785714e+02,   -1.875000e+02,    5.000000e+00
    1513,   -1.666667e+02,   -1.875000e+02,    5.000000e+00
    1514,   -1.547619e+02,   -1.875000e+02,    5.000000e+00
    1515,   -1.428571e+02,   -1.875000e+02,    5.000000e+00
    1516,   -1.309524e+02,   -1.875000e+02,    5.000000e+00
    1517,   -1.190476e+02,   -1.875000e+02,    5.000000e+00
    1518,   -1.071429e+02,   -1.875000e+02,    5.000000e+00
    1519,   -9.523810e+01,   -1.875000e+02,    5.000000e+00
    1520,   -8.333333e+01,   -1.875000e+02,    5.000000e+00
    1521,   -7.142857e+01,   -1.875000e+02,    5.000000e+00
    1522,   -5.952381e+01,   -1.875000e+02,    5.000000e+00
    1523,   -4.761905e+01,   -1.875000e+02,    5.000000e+00
    1524,   -3.571429e+01,   -1.875000e+02,    5.000000e+00
    1525,   -2.380952e+01,   -1.875000e+02,    5.000000e+00
    1526,   -1.190476e+01,   -1.875000e+02,    5.000000e+00
    1527,   -2.380952e+02,   -2.000000e+02,    5.000000e+00
    1528,   -2.261905e+02,   -2.000000e+02,    5.000000e+00
    1529,   -2.142857e+02,   -2.000000e+02,    5.000000e+00
    1530,   -2.023810e+02,   -2.000000e+02,    5.000000e+00
    1531,   -1.904762e+02,   -2.000000e+02,    5.000000e+00
    1532,   -1.785714e+02,   -2.000000e+02,    5.000000e+00
    1533,   -1.666667e+02,   -2.000000e+02,    5.000000e+00
    1534,   -1.547619e+02,   -2.000000e+02,    5.000000e+00
    1535,   -1.428571e+02,   -2.000000e+02,    5.000000e+00
    1536,   -1.309524e+02,   -2.000000e+02,    5.000000e+00
    1537,   -1.190476e+02,   -2.000000e+02,    5.000000e+00
    1538,   -1.071429e+02,   -2.000000e+02,    5.000000e+00
    1539,   -9.523810e+01,   -2.000000e+02,    5.000000e+00
    1540,   -8.333333e+01,   -2.000000e+02,    5.000000e+00
    1541,   -7.142857e+01,   -2.000000e+02,    5.000000e+00
    1542,   -5.952381e+01,   -2.000000e+02,    5.000000e+00
    1543,   -4.761905e+01,   -2.000000e+02,    5.000000e+00
    1544,   -3.571429e+01,   -2.000000e+02,    5.000000e+00
    1545,   -2.380952e+01,   -2.000000e+02,    5.000000e+00
    1546,   -1.190476e+01,   -2.000000e+02,    5.000000e+00
    1547,   -2.380952e+02,   -2.125000e+02,    5.000000e+00
    1548,   -2.261905e+02,   -2.125000e+02,    5.000000e+00
    1549,   -2.142857e+02,   -2.125000e+02,    5.000000e+00
    1550,   -2.023810e+02,   -2.125000e+02,    5.000000e+00
    1551,   -1.904762e+02,   -2.125000e+02,    5.000000e+00
    1552,   -1.785714e+02,   -2.125000e+02,    5.000000e+00
    1553,   -1.666667e+02,   -2.125000e+02,    5.000000e+00
    1554,   -1.547619e+02,   -2.125000e+02,    5.000000e+00
    1555,   -1.428571e+02,   -2.125000e+02,    5.000000e+00
    1556,   -1.309524e+02,   -2.125000e+02,    5.000000e+00
    1557,   -1.190476e+02,   -2.125000e+02,    5.000000e+00
    1558,   -1.071429e+02,   -2.125000e+02,    5.000000e+00
    1559,   -9.523810e+01,   -2.125000e+02,    5.000000e+00
    1560,   -8.333333e+01,   -2.125000e+02,    5.000000e+00
    1561,   -7.142857e+01,   -2.125000e+02,    5.000000e+00
    1562,   -5.952381e+01,   -2.125000e+02,    5.000000e+00
    1563,   -4.761905e+01,   -2.125000e+02,    5.000000e+00
    1564,   -3.571429e+01,   -2.125000e+02,    5.000000e+00
    1565,   -2.380952e+01,   -2.125000e+02,    5.000000e+00
    1566,   -1.190476e+01,   -2.125000e+02,    5.000000e+00
    1567,   -2.380952e+02,   -2.250000e+02,    5.000000e+00
    1568,   -2.261905e+02,   -2.250000e+02,    5.000000e+00
    1569,   -2.142857e+02,   -2.250000e+02,    5.000000e+00
    1570,   -2.023810e+02,   -2.250000e+02,    5.000000e+00
    1571,   -1.904762e+02,   -2.250000e+02,    5.000000e+00
    1572,   -1.785714e+02,   -2.250000e+02,    5.000000e+00
    1573,   -1.666667e+02,   -2.250000e+02,    5.000000e+00
    1574,   -1.547619e+02,   -2.250000e+02,    5.000000e+00
    1575,   -1.428571e+02,   -2.250000e+02,    5.000000e+00
    1576,   -1.309524e+02,   -2.250000e+02,    5.000000e+00
    1577,   -1.190476e+02,   -2.250000e+02,    5.000000e+00
    1578,   -1.071429e+02,   -2.250000e+02,    5.000000e+00
    1579,   -9.523810e+01,   -2.250000e+02,    5.000000e+00
    1580,   -8.333333e+01,   -2.250000e+02,    5.000000e+00
    1581,   -7.142857e+01,   -2.250000e+02,    5.000000e+00
    1582,   -5.952381e+01,   -2.250000e+02,    5.000000e+00
    1583,   -4.761905e+01,   -2.250000e+02,    5.000000e+00
    1584,   -3.571429e+01,   -2.250000e+02,    5.000000e+00
    1585,   -2.380952e+01,   -2.250000e+02,    5.000000e+00
    1586,   -1.190476e+01,   -2.250000e+02,    5.000000e+00
    1587,   -2.380952e+02,   -2.375000e+02,    5.000000e+00
    1588,   -2.261905e+02,   -2.375000e+02,    5.000000e+00
    1589,   -2.142857e+02,   -2.375000e+02,    5.000000e+00
    1590,   -2.023810e+02,   -2.375000e+02,    5.000000e+00
    1591,   -1.904762e+02,   -2.375000e+02,    5.000000e+00
    1592,   -1.785714e+02,   -2.375000e+02,    5.000000e+00
    1593,   -1.666667e+02,   -2.375000e+02,    5.000000e+00
    1594,   -1.547619e+02,   -2.375000e+02,    5.000000e+00
    1595,   -1.428571e+02,   -2.375000e+02,    5.000000e+00
    1596,   -1.309524e+02,   -2.375000e+02,    5.000000e+00
    1597,   -1.190476e+02,   -2.375000e+02,    5.000000e+00
    1598,   -1.071429e+02,   -2.375000e+02,    5.000000e+00
    1599,   -9.523810e+01,   -2.375000e+02,    5.000000e+00
    1600,   -8.333333e+01,   -2.375000e+02,    5.000000e+00
    1601,   -7.142857e+01,   -2.375000e+02,    5.000000e+00
    1602,   -5.952381e+01,   -2.375000e+02,    5.000000e+00
    1603,   -4.761905e+01,   -2.375000e+02,    5.000000e+00
    1604,   -3.571429e+01,   -2.375000e+02,    5.000000e+00
    1605,   -2.380952e+01,   -2.375000e+02,    5.000000e+00
    1606,   -1.190476e+01,   -2.375000e+02,    5.000000e+00
    1607,    2.000000e+02,    0.000000e+00,    5.000000e+00
    1608,    2.500000e+02,    0.000000e+00,    5.000000e+00
    1609,    2.375000e+02,    0.000000e+00,    5.000000e+00
    1610,    2.250000e+02,    0.000000e+00,    5.000000e+00
    1611,    2.125000e+02,    0.000000e+00,    5.000000e+00
    1612,    2.500000e+02,    2.500000e+02,    5.000000e+00
    1613,    2.500000e+02,    1.190476e+01,    5.000000e+00
    1614,    2.500000e+02,    2.380952e+01,    5.000000e+00
    1615,    2.500000e+02,    3.571429e+01,    5.000000e+00
    1616,    2.500000e+02,    4.761905e+01,    5.000000e+00
    1617,    2.500000e+02,    5.952381e+01,    5.000000e+00
    1618,    2.500000e+02,    7.142857e+01,    5.000000e+00
    1619,    2.500000e+02,    8.333333e+01,    5.000000e+00
    1620,    2.500000e+02,    9.523810e+01,    5.000000e+00
    1621,    2.500000e+02,    1.071429e+02,    5.000000e+00
    1622,    2.500000e+02,    1.190476e+02,    5.000000e+00
    1623,    2.500000e+02,    1.309524e+02,    5.000000e+00
    1624,    2.500000e+02,    1.428571e+02,    5.000000e+00
    1625,    2.500000e+02,    1.547619e+02,    5.000000e+00
    1626,    2.500000e+02,    1.666667e+02,    5.000000e+00
    1627,    2.500000e+02,    1.785714e+02,    5.000000e+00
    1628,    2.500000e+02,    1.904762e+02,    5.000000e+00
    1629,    2.500000e+02,    2.023810e+02,    5.000000e+00
    1630,    2.500000e+02,    2.142857e+02,    5.000000e+00
    1631,    2.500000e+02,    2.261905e+02,    5.000000e+00
    1632,    2.500000e+02,    2.380952e+02,    5.000000e+00
    1633,    2.000000e+02,    2.500000e+02,    5.000000e+00
    1634,    2.375000e+02,    2.500000e+02,    5.000000e+00
    1635,    2.250000e+02,    2.500000e+02,    5.000000e+00
    1636,    2.125000e+02,    2.500000e+02,    5.000000e+00
    1637,    2.000000e+02,    2.380952e+02,    5.000000e+00
    1638,    2.000000e+02,    2.261905e+02,    5.000000e+00
    1639,    2.000000e+02,    2.142857e+02,    5.000000e+00
    1640,    2.000000e+02,    2.023810e+02,    5.000000e+00
    1641,    2.000000e+02,    1.904762e+02,    5.000000e+00
    1642,    2.000000e+02,    1.785714e+02,    5.000000e+00
    1643,    2.000000e+02,    1.666667e+02,    5.000000e+00
    1644,    2.000000e+02,    1.547619e+02,    5.000000e+00
    1645,    2.000000e+02,    1.428571e+02,    5.000000e+00
    1646,    2.000000e+02,    1.309524e+02,    5.000000e+00
    1647,    2.000000e+02,    1.190476e+02,    5.000000e+00
    1648,    2.000000e+02,    1.071429e+02,    5.000000e+00
    1649,    2.000000e+02,    9.523810e+01,    5.000000e+00
    1650,    2.000000e+02,    8.333333e+01,    5.000000e+00
    1651,    2.000000e+02,    7.142857e+01,    5.000000e+00
    1652,    2.000000e+02,    5.952381e+01,    5.000000e+00
    1653,    2.000000e+02,    4.761905e+01,    5.000000e+00
    1654,    2.000000e+02,    3.571429e+01,    5.000000e+00
    1655,    2.000000e+02,    2.380952e+01,    5.000000e+00
    1656,    2.000000e+02,    1.190476e+01,    5.000000e+00
    1657,    2.125000e+02,    1.190476e+01,    5.000000e+00
    1658,    2.125000e+02,    2.380952e+01,    5.000000e+00
    1659,    2.125000e+02,    3.571429e+01,    5.000000e+00
    1660,    2.125000e+02,    4.761905e+01,    5.000000e+00
    1661,    2.125000e+02,    5.952381e+01,    5.000000e+00
    1662,    2.125000e+02,    7.142857e+01,    5.000000e+00
    1663,    2.125000e+02,    8.333333e+01,    5.000000e+00
    1664,    2.125000e+02,    9.523810e+01,    5.000000e+00
    1665,    2.125000e+02,    1.071429e+02,    5.000000e+00
    1666,    2.125000e+02,    1.190476e+02,    5.000000e+00
    1667,    2.125000e+02,    1.309524e+02,    5.000000e+00
    1668,    2.125000e+02,    1.428571e+02,    5.000000e+00
    1669,    2.125000e+02,    1.547619e+02,    5.000000e+00
    1670,    2.125000e+02,    1.666667e+02,    5.000000e+00
    1671,    2.125000e+02,    1.785714e+02,    5.000000e+00
    1672,    2.125000e+02,    1.904762e+02,    5.000000e+00
    1673,    2.125000e+02,    2.023810e+02,    5.000000e+00
    1674,    2.125000e+02,    2.142857e+02,    5.000000e+00
    1675,    2.125000e+02,    2.261905e+02,    5.000000e+00
    1676,    2.125000e+02,    2.380952e+02,    5.000000e+00
    1677,    2.250000e+02,    1.190476e+01,    5.000000e+00
    1678,    2.250000e+02,    2.380952e+01,    5.000000e+00
    1679,    2.250000e+02,    3.571429e+01,    5.000000e+00
    1680,    2.250000e+02,    4.761905e+01,    5.000000e+00
    1681,    2.250000e+02,    5.952381e+01,    5.000000e+00
    1682,    2.250000e+02,    7.142857e+01,    5.000000e+00
    1683,    2.250000e+02,    8.333333e+01,    5.000000e+00
    1684,    2.250000e+02,    9.523810e+01,    5.000000e+00
    1685,    2.250000e+02,    1.071429e+02,    5.000000e+00
    1686,    2.250000e+02,    1.190476e+02,    5.000000e+00
    1687,    2.250000e+02,    1.309524e+02,    5.000000e+00
    1688,    2.250000e+02,    1.428571e+02,    5.000000e+00
    1689,    2.250000e+02,    1.547619e+02,    5.000000e+00
    1690,    2.250000e+02,    1.666667e+02,    5.000000e+00
    1691,    2.250000e+02,    1.785714e+02,    5.000000e+00
    1692,    2.250000e+02,    1.904762e+02,    5.000000e+00
    1693,    2.250000e+02,    2.023810e+02,    5.000000e+00
    1694,    2.250000e+02,    2.142857e+02,    5.000000e+00
    1695,    2.250000e+02,    2.261905e+02,    5.000000e+00
    1696,    2.250000e+02,    2.380952e+02,    5.000000e+00
    1697,    2.375000e+02,    1.190476e+01,    5.000000e+00
    1698,    2.375000e+02,    2.380952e+01,    5.000000e+00
    1699,    2.375000e+02,    3.571429e+01,    5.000000e+00
    1700,    2.375000e+02,    4.761905e+01,    5.000000e+00
    1701,    2.375000e+02,    5.952381e+01,    5.000000e+00
    1702,    2.375000e+02,    7.142857e+01,    5.000000e+00
    1703,    2.375000e+02,    8.333333e+01,    5.000000e+00
    1704,    2.375000e+02,    9.523810e+01,    5.000000e+00
    1705,    2.375000e+02,    1.071429e+02,    5.000000e+00
    1706,    2.375000e+02,    1.190476e+02,    5.000000e+00
    1707,    2.375000e+02,    1.309524e+02,    5.000000e+00
    1708,    2.375000e+02,    1.428571e+02,    5.000000e+00
    1709,    2.375000e+02,    1.547619e+02,    5.000000e+00
    1710,    2.375000e+02,    1.666667e+02,    5.000000e+00
    1711,    2.375000e+02,    1.785714e+02,    5.000000e+00
    1712,    2.375000e+02,    1.904762e+02,    5.000000e+00
    1713,    2.375000e+02,    2.023810e+02,    5.000000e+00
    1714,    2.375000e+02,    2.142857e+02,    5.000000e+00
    1715,    2.375000e+02,    2.261905e+02,    5.000000e+00
    1716,    2.375000e+02,    2.380952e+02,    5.000000e+00
    1717,    0.000000e+00,    0.000000e+00,    5.000000e+00
    1718,    0.000000e+00,    2.500000e+02,    5.000000e+00
    1719,    0.000000e+00,    2.380952e+02,    5.000000e+00
    1720,    0.000000e+00,    2.261905e+02,    5.000000e+00
    1721,    0.000000e+00,    2.142857e+02,    5.000000e+00
    1722,    0.000000e+00,    2.023810e+02,    5.000000e+00
    1723,    0.000000e+00,    1.904762e+02,    5.000000e+00
    1724,    0.000000e+00,    1.785714e+02,    5.000000e+00
    1725,    0.000000e+00,    1.666667e+02,    5.000000e+00
    1726,    0.000000e+00,    1.547619e+02,    5.000000e+00
    1727,    0.000000e+00,    1.428571e+02,    5.000000e+00
    1728,    0.000000e+00,    1.309524e+02,    5.000000e+00
    1729,    0.000000e+00,    1.190476e+02,    5.000000e+00
    1730,    0.000000e+00,    1.071429e+02,    5.000000e+00
    1731,    0.000000e+00,    9.523810e+01,    5.000000e+00
    1732,    0.000000e+00,    8.333333e+01,    5.000000e+00
    1733,    0.000000e+00,    7.142857e+01,    5.000000e+00
    1734,    0.000000e+00,    5.952381e+01,    5.000000e+00
    1735,    0.000000e+00,    4.761905e+01,    5.000000e+00
    1736,    0.000000e+00,    3.571429e+01,    5.000000e+00
    1737,    0.000000e+00,    2.380952e+01,    5.000000e+00
    1738,    0.000000e+00,    1.190476e+01,    5.000000e+00
    1739,   -2.500000e+02,    2.500000e+02,    5.000000e+00
    1740,   -1.190476e+01,    2.500000e+02,    5.000000e+00
    1741,   -2.380952e+01,    2.500000e+02,    5.000000e+00
    1742,   -3.571429e+01,    2.500000e+02,    5.000000e+00
    1743,   -4.761905e+01,    2.500000e+02,    5.000000e+00
    1744,   -5.952381e+01,    2.500000e+02,    5.000000e+00
    1745,   -7.142857e+01,    2.500000e+02,    5.000000e+00
    1746,   -8.333333e+01,    2.500000e+02,    5.000000e+00
    1747,   -9.523810e+01,    2.500000e+02,    5.000000e+00
    1748,   -1.071429e+02,    2.500000e+02,    5.000000e+00
    1749,   -1.190476e+02,    2.500000e+02,    5.000000e+00
    1750,   -1.309524e+02,    2.500000e+02,    5.000000e+00
    1751,   -1.428571e+02,    2.500000e+02,    5.000000e+00
    1752,   -1.547619e+02,    2.500000e+02,    5.000000e+00
    1753,   -1.666667e+02,    2.500000e+02,    5.000000e+00
    1754,   -1.785714e+02,    2.500000e+02,    5.000000e+00
    1755,   -1.904762e+02,    2.500000e+02,    5.000000e+00
    1756,   -2.023810e+02,    2.500000e+02,    5.000000e+00
    1757,   -2.142857e+02,    2.500000e+02,    5.000000e+00
    1758,   -2.261905e+02,    2.500000e+02,    5.000000e+00
    1759,   -2.380952e+02,    2.500000e+02,    5.000000e+00
    1760,   -2.500000e+02,    0.000000e+00,    5.000000e+00
    1761,   -2.500000e+02,    2.380952e+02,    5.000000e+00
    1762,   -2.500000e+02,    2.261905e+02,    5.000000e+00
    1763,   -2.500000e+02,    2.142857e+02,    5.000000e+00
    1764,   -2.500000e+02,    2.023810e+02,    5.000000e+00
    1765,   -2.500000e+02,    1.904762e+02,    5.000000e+00
    1766,   -2.500000e+02,    1.785714e+02,    5.000000e+00
    1767,   -2.500000e+02,    1.666667e+02,    5.000000e+00
    1768,   -2.500000e+02,    1.547619e+02,    5.000000e+00
    1769,   -2.500000e+02,    1.428571e+02,    5.000000e+00
    1770,   -2.500000e+02,    1.309524e+02,    5.000000e+00
    1771,   -2.500000e+02,    1.190476e+02,    5.000000e+00
    1772,   -2.500000e+02,    1.071429e+02,    5.000000e+00
    1773,   -2.500000e+02,    9.523810e+01,    5.000000e+00
    1774,   -2.500000e+02,    8.333333e+01,    5.000000e+00
    1775,   -2.500000e+02,    7.142857e+01,    5.000000e+00
    1776,   -2.500000e+02,    5.952381e+01,    5.000000e+00
    1777,   -2.500000e+02,    4.761905e+01,    5.000000e+00
    1778,   -2.500000e+02,    3.571429e+01,    5.000000e+00
    1779,   -2.500000e+02,    2.380952e+01,    5.000000e+00
    1780,   -2.500000e+02,    1.190476e+01,    5.000000e+00
    1781,   -1.190476e+01,    0.000000e+00,    5.000000e+00
    1782,   -2.380952e+01,    0.000000e+00,    5.000000e+00
    1783,   -3.571429e+01,    0.000000e+00,    5.000000e+00
    1784,   -4.761905e+01,    0.000000e+00,    5.000000e+00
    1785,   -5.952381e+01,    0.000000e+00,    5.000000e+00
    1786,   -7.142857e+01,    0.000000e+00,    5.000000e+00
    1787,   -8.333333e+01,    0.000000e+00,    5.000000e+00
    1788,   -9.523810e+01,    0.000000e+00,    5.000000e+00
    1789,   -1.071429e+02,    0.000000e+00,    5.000000e+00
    1790,   -1.190476e+02,    0.000000e+00,    5.000000e+00
    1791,   -1.309524e+02,    0.000000e+00,    5.000000e+00
    1792,   -1.428571e+02,    0.000000e+00,    5.000000e+00
    1793,   -1.547619e+02,    0.000000e+00,    5.000000e+00
    1794,   -1.666667e+02,    0.000000e+00,    5.000000e+00
    1795,   -1.785714e+02,    0.000000e+00,    5.000000e+00
    1796,   -1.904762e+02,    0.000000e+00,    5.000000e+00
    1797,   -2.023810e+02,    0.000000e+00,    5.000000e+00
    1798,   -2.142857e+02,    0.000000e+00,    5.000000e+00
    1799,   -2.261905e+02,    0.000000e+00,    5.000000e+00
    1800,   -2.380952e+02,    0.000000e+00,    5.000000e+00
    1801,   -1.190476e+01,    1.190476e+01,    5.000000e+00
    1802,   -2.380952e+01,    1.190476e+01,    5.000000e+00
    1803,   -3.571429e+01,    1.190476e+01,    5.000000e+00
    1804,   -4.761905e+01,    1.190476e+01,    5.000000e+00
    1805,   -5.952381e+01,    1.190476e+01,    5.000000e+00
    1806,   -7.142857e+01,    1.190476e+01,    5.000000e+00
    1807,   -8.333333e+01,    1.190476e+01,    5.000000e+00
    1808,   -9.523810e+01,    1.190476e+01,    5.000000e+00
    1809,   -1.071429e+02,    1.190476e+01,    5.000000e+00
    1810,   -1.190476e+02,    1.190476e+01,    5.000000e+00
    1811,   -1.309524e+02,    1.190476e+01,    5.000000e+00
    1812,   -1.428571e+02,    1.190476e+01,    5.000000e+00
    1813,   -1.547619e+02,    1.190476e+01,    5.000000e+00
    1814,   -1.666667e+02,    1.190476e+01,    5.000000e+00
    1815,   -1.785714e+02,    1.190476e+01,    5.000000e+00
    1816,   -1.904762e+02,    1.190476e+01,    5.000000e+00
    1817,   -2.023810e+02,    1.190476e+01,    5.000000e+00
    1818,   -2.142857e+02,    1.190476e+01,    5.000000e+00
    1819,   -2.261905e+02,    1.190476e+01,    5.000000e+00
    1820,   -2.380952e+02,    1.190476e+01,    5.000000e+00
    1821,   -1.190476e+01,    2.380952e+01,    5.000000e+00
    1822,   -2.380952e+01,    2.380952e+01,    5.000000e+00
    1823,   -3.571429e+01,    2.380952e+01,    5.000000e+00
    1824,   -4.761905e+01,    2.380952e+01,    5.000000e+00
    1825,   -5.952381e+01,    2.380952e+01,    5.000000e+00
    1826,   -7.142857e+01,    2.380952e+01,    5.000000e+00
    1827,   -8.333333e+01,    2.380952e+01,    5.000000e+00
    1828,   -9.523810e+01,    2.380952e+01,    5.000000e+00
    1829,   -1.071429e+02,    2.380952e+01,    5.000000e+00
    1830,   -1.190476e+02,    2.380952e+01,    5.000000e+00
    1831,   -1.309524e+02,    2.380952e+01,    5.000000e+00
    1832,   -1.428571e+02,    2.380952e+01,    5.000000e+00
    1833,   -1.547619e+02,    2.380952e+01,    5.000000e+00
    1834,   -1.666667e+02,    2.380952e+01,    5.000000e+00
    1835,   -1.785714e+02,    2.380952e+01,    5.000000e+00
    1836,   -1.904762e+02,    2.380952e+01,    5.000000e+00
    1837,   -2.023810e+02,    2.380952e+01,    5.000000e+00
    1838,   -2.142857e+02,    2.380952e+01,    5.000000e+00
    1839,   -2.261905e+02,    2.380952e+01,    5.000000e+00
    1840,   -2.380952e+02,    2.380952e+01,    5.000000e+00
    1841,   -1.190476e+01,    3.571429e+01,    5.000000e+00
    1842,   -2.380952e+01,    3.571429e+01,    5.000000e+00
    1843,   -3.571429e+01,    3.571429e+01,    5.000000e+00
    1844,   -4.761905e+01,    3.571429e+01,    5.000000e+00
    1845,   -5.952381e+01,    3.571429e+01,    5.000000e+00
    1846,   -7.142857e+01,    3.571429e+01,    5.000000e+00
    1847,   -8.333333e+01,    3.571429e+01,    5.000000e+00
    1848,   -9.523810e+01,    3.571429e+01,    5.000000e+00
    1849,   -1.071429e+02,    3.571429e+01,    5.000000e+00
    1850,   -1.190476e+02,    3.571429e+01,    5.000000e+00
    1851,   -1.309524e+02,    3.571429e+01,    5.000000e+00
    1852,   -1.428571e+02,    3.571429e+01,    5.000000e+00
    1853,   -1.547619e+02,    3.571429e+01,    5.000000e+00
    1854,   -1.666667e+02,    3.571429e+01,    5.000000e+00
    1855,   -1.785714e+02,    3.571429e+01,    5.000000e+00
    1856,   -1.904762e+02,    3.571429e+01,    5.000000e+00
    1857,   -2.023810e+02,    3.571429e+01,    5.000000e+00
    1858,   -2.142857e+02,    3.571429e+01,    5.000000e+00
    1859,   -2.261905e+02,    3.571429e+01,    5.000000e+00
    1860,   -2.380952e+02,    3.571429e+01,    5.000000e+00
    1861,   -1.190476e+01,    4.761905e+01,    5.000000e+00
    1862,   -2.380952e+01,    4.761905e+01,    5.000000e+00
    1863,   -3.571429e+01,    4.761905e+01,    5.000000e+00
    1864,   -4.761905e+01,    4.761905e+01,    5.000000e+00
    1865,   -5.952381e+01,    4.761905e+01,    5.000000e+00
    1866,   -7.142857e+01,    4.761905e+01,    5.000000e+00
    1867,   -8.333333e+01,    4.761905e+01,    5.000000e+00
    1868,   -9.523810e+01,    4.761905e+01,    5.000000e+00
    1869,   -1.071429e+02,    4.761905e+01,    5.000000e+00
    1870,   -1.190476e+02,    4.761905e+01,    5.000000e+00
    1871,   -1.309524e+02,    4.761905e+01,    5.000000e+00
    1872,   -1.428571e+02,    4.761905e+01,    5.000000e+00
    1873,   -1.547619e+02,    4.761905e+01,    5.000000e+00
    1874,   -1.666667e+02,    4.761905e+01,    5.000000e+00
    1875,   -1.785714e+02,    4.761905e+01,    5.000000e+00
    1876,   -1.904762e+02,    4.761905e+01,    5.000000e+00
    1877,   -2.023810e+02,    4.761905e+01,    5.000000e+00
    1878,   -2.142857e+02,    4.761905e+01,    5.000000e+00
    1879,   -2.261905e+02,    4.761905e+01,    5.000000e+00
    1880,   -2.380952e+02,    4.761905e+01,    5.000000e+00
    1881,   -1.190476e+01,    5.952381e+01,    5.000000e+00
    1882,   -2.380952e+01,    5.952381e+01,    5.000000e+00
    1883,   -3.571429e+01,    5.952381e+01,    5.000000e+00
    1884,   -4.761905e+01,    5.952381e+01,    5.000000e+00
    1885,   -5.952381e+01,    5.952381e+01,    5.000000e+00
    1886,   -7.142857e+01,    5.952381e+01,    5.000000e+00
    1887,   -8.333333e+01,    5.952381e+01,    5.000000e+00
    1888,   -9.523810e+01,    5.952381e+01,    5.000000e+00
    1889,   -1.071429e+02,    5.952381e+01,    5.000000e+00
    1890,   -1.190476e+02,    5.952381e+01,    5.000000e+00
    1891,   -1.309524e+02,    5.952381e+01,    5.000000e+00
    1892,   -1.428571e+02,    5.952381e+01,    5.000000e+00
    1893,   -1.547619e+02,    5.952381e+01,    5.000000e+00
    1894,   -1.666667e+02,    5.952381e+01,    5.000000e+00
    1895,   -1.785714e+02,    5.952381e+01,    5.000000e+00
    1896,   -1.904762e+02,    5.952381e+01,    5.000000e+00
    1897,   -2.023810e+02,    5.952381e+01,    5.000000e+00
    1898,   -2.142857e+02,    5.952381e+01,    5.000000e+00
    1899,   -2.261905e+02,    5.952381e+01,    5.000000e+00
    1900,   -2.380952e+02,    5.952381e+01,    5.000000e+00
    1901,   -1.190476e+01,    7.142857e+01,    5.000000e+00
    1902,   -2.380952e+01,    7.142857e+01,    5.000000e+00
    1903,   -3.571429e+01,    7.142857e+01,    5.000000e+00
    1904,   -4.761905e+01,    7.142857e+01,    5.000000e+00
    1905,   -5.952381e+01,    7.142857e+01,    5.000000e+00
    1906,   -7.142857e+01,    7.142857e+01,    5.000000e+00
    1907,   -8.333333e+01,    7.142857e+01,    5.000000e+00
    1908,   -9.523810e+01,    7.142857e+01,    5.000000e+00
    1909,   -1.071429e+02,    7.142857e+01,    5.000000e+00
    1910,   -1.190476e+02,    7.142857e+01,    5.000000e+00
    1911,   -1.309524e+02,    7.142857e+01,    5.000000e+00
    1912,   -1.428571e+02,    7.142857e+01,    5.000000e+00
    1913,   -1.547619e+02,    7.142857e+01,    5.000000e+00
    1914,   -1.666667e+02,    7.142857e+01,    5.000000e+00
    1915,   -1.785714e+02,    7.142857e+01,    5.000000e+00
    1916,   -1.904762e+02,    7.142857e+01,    5.000000e+00
    1917,   -2.023810e+02,    7.142857e+01,    5.000000e+00
    1918,   -2.142857e+02,    7.142857e+01,    5.000000e+00
    1919,   -2.261905e+02,    7.142857e+01,    5.000000e+00
    1920,   -2.380952e+02,    7.142857e+01,    5.000000e+00
    1921,   -1.190476e+01,    8.333333e+01,    5.000000e+00
    1922,   -2.380952e+01,    8.333333e+01,    5.000000e+00
    1923,   -3.571429e+01,    8.333333e+01,    5.000000e+00
    1924,   -4.761905e+01,    8.333333e+01,    5.000000e+00
    1925,   -5.952381e+01,    8.333333e+01,    5.000000e+00
    1926,   -7.142857e+01,    8.333333e+01,    5.000000e+00
    1927,   -8.333333e+01,    8.333333e+01,    5.000000e+00
    1928,   -9.523810e+01,    8.333333e+01,    5.000000e+00
    1929,   -1.071429e+02,    8.333333e+01,    5.000000e+00
    1930,   -1.190476e+02,    8.333333e+01,    5.000000e+00
    1931,   -1.309524e+02,    8.333333e+01,    5.000000e+00
    1932,   -1.428571e+02,    8.333333e+01,    5.000000e+00
    1933,   -1.547619e+02,    8.333333e+01,    5.000000e+00
    1934,   -1.666667e+02,    8.333333e+01,    5.000000e+00
    1935,   -1.785714e+02,    8.333333e+01,    5.000000e+00
    1936,   -1.904762e+02,    8.333333e+01,    5.000000e+00
    1937,   -2.023810e+02,    8.333333e+01,    5.000000e+00
    1938,   -2.142857e+02,    8.333333e+01,    5.000000e+00
    1939,   -2.261905e+02,    8.333333e+01,    5.000000e+00
    1940,   -2.380952e+02,    8.333333e+01,    5.000000e+00
    1941,   -1.190476e+01,    9.523810e+01,    5.000000e+00
    1942,   -2.380952e+01,    9.523810e+01,    5.000000e+00
    1943,   -3.571429e+01,    9.523810e+01,    5.000000e+00
    1944,   -4.761905e+01,    9.523810e+01,    5.000000e+00
    1945,   -5.952381e+01,    9.523810e+01,    5.000000e+00
    1946,   -7.142857e+01,    9.523810e+01,    5.000000e+00
    1947,   -8.333333e+01,    9.523810e+01,    5.000000e+00
    1948,   -9.523810e+01,    9.523810e+01,    5.000000e+00
    1949,   -1.071429e+02,    9.523810e+01,    5.000000e+00
    1950,   -1.190476e+02,    9.523810e+01,    5.000000e+00
    1951,   -1.309524e+02,    9.523810e+01,    5.000000e+00
    1952,   -1.428571e+02,    9.523810e+01,    5.000000e+00
    1953,   -1.547619e+02,    9.523810e+01,    5.000000e+00
    1954,   -1.666667e+02,    9.523810e+01,    5.000000e+00
    1955,   -1.785714e+02,    9.523810e+01,    5.000000e+00
    1956,   -1.904762e+02,    9.523810e+01,    5.000000e+00
    1957,   -2.023810e+02,    9.523810e+01,    5.000000e+00
    1958,   -2.142857e+02,    9.523810e+01,    5.000000e+00
    1959,   -2.261905e+02,    9.523810e+01,    5.000000e+00
    1960,   -2.380952e+02,    9.523810e+01,    5.000000e+00
    1961,   -1.190476e+01,    1.071429e+02,    5.000000e+00
    1962,   -2.380952e+01,    1.071429e+02,    5.000000e+00
    1963,   -3.571429e+01,    1.071429e+02,    5.000000e+00
    1964,   -4.761905e+01,    1.071429e+02,    5.000000e+00
    1965,   -5.952381e+01,    1.071429e+02,    5.000000e+00
    1966,   -7.142857e+01,    1.071429e+02,    5.000000e+00
    1967,   -8.333333e+01,    1.071429e+02,    5.000000e+00
    1968,   -9.523810e+01,    1.071429e+02,    5.000000e+00
    1969,   -1.071429e+02,    1.071429e+02,    5.000000e+00
    1970,   -1.190476e+02,    1.071429e+02,    5.000000e+00
    1971,   -1.309524e+02,    1.071429e+02,    5.000000e+00
    1972,   -1.428571e+02,    1.071429e+02,    5.000000e+00
    1973,   -1.547619e+02,    1.071429e+02,    5.000000e+00
    1974,   -1.666667e+02,    1.071429e+02,    5.000000e+00
    1975,   -1.785714e+02,    1.071429e+02,    5.000000e+00
    1976,   -1.904762e+02,    1.071429e+02,    5.000000e+00
    1977,   -2.023810e+02,    1.071429e+02,    5.000000e+00
    1978,   -2.142857e+02,    1.071429e+02,    5.000000e+00
    1979,   -2.261905e+02,    1.071429e+02,    5.000000e+00
    1980,   -2.380952e+02,    1.071429e+02,    5.000000e+00
    1981,   -1.190476e+01,    1.190476e+02,    5.000000e+00
    1982,   -2.380952e+01,    1.190476e+02,    5.000000e+00
    1983,   -3.571429e+01,    1.190476e+02,    5.000000e+00
    1984,   -4.761905e+01,    1.190476e+02,    5.000000e+00
    1985,   -5.952381e+01,    1.190476e+02,    5.000000e+00
    1986,   -7.142857e+01,    1.190476e+02,    5.000000e+00
    1987,   -8.333333e+01,    1.190476e+02,    5.000000e+00
    1988,   -9.523810e+01,    1.190476e+02,    5.000000e+00
    1989,   -1.071429e+02,    1.190476e+02,    5.000000e+00
    1990,   -1.190476e+02,    1.190476e+02,    5.000000e+00
    1991,   -1.309524e+02,    1.190476e+02,    5.000000e+00
    1992,   -1.428571e+02,    1.190476e+02,    5.000000e+00
    1993,   -1.547619e+02,    1.190476e+02,    5.000000e+00
    1994,   -1.666667e+02,    1.190476e+02,    5.000000e+00
    1995,   -1.785714e+02,    1.190476e+02,    5.000000e+00
    1996,   -1.904762e+02,    1.190476e+02,    5.000000e+00
    1997,   -2.023810e+02,    1.190476e+02,    5.000000e+00
    1998,   -2.142857e+02,    1.190476e+02,    5.000000e+00
    1999,   -2.261905e+02,    1.190476e+02,    5.000000e+00
    2000,   -2.380952e+02,    1.190476e+02,    5.000000e+00
    2001,   -1.190476e+01,    1.309524e+02,    5.000000e+00
    2002,   -2.380952e+01,    1.309524e+02,    5.000000e+00
    2003,   -3.571429e+01,    1.309524e+02,    5.000000e+00
    2004,   -4.761905e+01,    1.309524e+02,    5.000000e+00
    2005,   -5.952381e+01,    1.309524e+02,    5.000000e+00
    2006,   -7.142857e+01,    1.309524e+02,    5.000000e+00
    2007,   -8.333333e+01,    1.309524e+02,    5.000000e+00
    2008,   -9.523810e+01,    1.309524e+02,    5.000000e+00
    2009,   -1.071429e+02,    1.309524e+02,    5.000000e+00
    2010,   -1.190476e+02,    1.309524e+02,    5.000000e+00
    2011,   -1.309524e+02,    1.309524e+02,    5.000000e+00
    2012,   -1.428571e+02,    1.309524e+02,    5.000000e+00
    2013,   -1.547619e+02,    1.309524e+02,    5.000000e+00
    2014,   -1.666667e+02,    1.309524e+02,    5.000000e+00
    2015,   -1.785714e+02,    1.309524e+02,    5.000000e+00
    2016,   -1.904762e+02,    1.309524e+02,    5.000000e+00
    2017,   -2.023810e+02,    1.309524e+02,    5.000000e+00
    2018,   -2.142857e+02,    1.309524e+02,    5.000000e+00
    2019,   -2.261905e+02,    1.309524e+02,    5.000000e+00
    2020,   -2.380952e+02,    1.309524e+02,    5.000000e+00
    2021,   -1.190476e+01,    1.428571e+02,    5.000000e+00
    2022,   -2.380952e+01,    1.428571e+02,    5.000000e+00
    2023,   -3.571429e+01,    1.428571e+02,    5.000000e+00
    2024,   -4.761905e+01,    1.428571e+02,    5.000000e+00
    2025,   -5.952381e+01,    1.428571e+02,    5.000000e+00
    2026,   -7.142857e+01,    1.428571e+02,    5.000000e+00
    2027,   -8.333333e+01,    1.428571e+02,    5.000000e+00
    2028,   -9.523810e+01,    1.428571e+02,    5.000000e+00
    2029,   -1.071429e+02,    1.428571e+02,    5.000000e+00
    2030,   -1.190476e+02,    1.428571e+02,    5.000000e+00
    2031,   -1.309524e+02,    1.428571e+02,    5.000000e+00
    2032,   -1.428571e+02,    1.428571e+02,    5.000000e+00
    2033,   -1.547619e+02,    1.428571e+02,    5.000000e+00
    2034,   -1.666667e+02,    1.428571e+02,    5.000000e+00
    2035,   -1.785714e+02,    1.428571e+02,    5.000000e+00
    2036,   -1.904762e+02,    1.428571e+02,    5.000000e+00
    2037,   -2.023810e+02,    1.428571e+02,    5.000000e+00
    2038,   -2.142857e+02,    1.428571e+02,    5.000000e+00
    2039,   -2.261905e+02,    1.428571e+02,    5.000000e+00
    2040,   -2.380952e+02,    1.428571e+02,    5.000000e+00
    2041,   -1.190476e+01,    1.547619e+02,    5.000000e+00
    2042,   -2.380952e+01,    1.547619e+02,    5.000000e+00
    2043,   -3.571429e+01,    1.547619e+02,    5.000000e+00
    2044,   -4.761905e+01,    1.547619e+02,    5.000000e+00
    2045,   -5.952381e+01,    1.547619e+02,    5.000000e+00
    2046,   -7.142857e+01,    1.547619e+02,    5.000000e+00
    2047,   -8.333333e+01,    1.547619e+02,    5.000000e+00
    2048,   -9.523810e+01,    1.547619e+02,    5.000000e+00
    2049,   -1.071429e+02,    1.547619e+02,    5.000000e+00
    2050,   -1.190476e+02,    1.547619e+02,    5.000000e+00
    2051,   -1.309524e+02,    1.547619e+02,    5.000000e+00
    2052,   -1.428571e+02,    1.547619e+02,    5.000000e+00
    2053,   -1.547619e+02,    1.547619e+02,    5.000000e+00
    2054,   -1.666667e+02,    1.547619e+02,    5.000000e+00
    2055,   -1.785714e+02,    1.547619e+02,    5.000000e+00
    2056,   -1.904762e+02,    1.547619e+02,    5.000000e+00
    2057,   -2.023810e+02,    1.547619e+02,    5.000000e+00
    2058,   -2.142857e+02,    1.547619e+02,    5.000000e+00
    2059,   -2.261905e+02,    1.547619e+02,    5.000000e+00
    2060,   -2.380952e+02,    1.547619e+02,    5.000000e+00
    2061,   -1.190476e+01,    1.666667e+02,    5.000000e+00
    2062,   -2.380952e+01,    1.666667e+02,    5.000000e+00
    2063,   -3.571429e+01,    1.666667e+02,    5.000000e+00
    2064,   -4.761905e+01,    1.666667e+02,    5.000000e+00
    2065,   -5.952381e+01,    1.666667e+02,    5.000000e+00
    2066,   -7.142857e+01,    1.666667e+02,    5.000000e+00
    2067,   -8.333333e+01,    1.666667e+02,    5.000000e+00
    2068,   -9.523810e+01,    1.666667e+02,    5.000000e+00
    2069,   -1.071429e+02,    1.666667e+02,    5.000000e+00
    2070,   -1.190476e+02,    1.666667e+02,    5.000000e+00
    2071,   -1.309524e+02,    1.666667e+02,    5.000000e+00
    2072,   -1.428571e+02,    1.666667e+02,    5.000000e+00
    2073,   -1.547619e+02,    1.666667e+02,    5.000000e+00
    2074,   -1.666667e+02,    1.666667e+02,    5.000000e+00
    2075,   -1.785714e+02,    1.666667e+02,    5.000000e+00
    2076,   -1.904762e+02,    1.666667e+02,    5.000000e+00
    2077,   -2.023810e+02,    1.666667e+02,    5.000000e+00
    2078,   -2.142857e+02,    1.666667e+02,    5.000000e+00
    2079,   -2.261905e+02,    1.666667e+02,    5.000000e+00
    2080,   -2.380952e+02,    1.666667e+02,    5.000000e+00
    2081,   -1.190476e+01,    1.785714e+02,    5.000000e+00
    2082,   -2.380952e+01,    1.785714e+02,    5.000000e+00
    2083,   -3.571429e+01,    1.785714e+02,    5.000000e+00
    2084,   -4.761905e+01,    1.785714e+02,    5.000000e+00
    2085,   -5.952381e+01,    1.785714e+02,    5.000000e+00
    2086,   -7.142857e+01,    1.785714e+02,    5.000000e+00
    2087,   -8.333333e+01,    1.785714e+02,    5.000000e+00
    2088,   -9.523810e+01,    1.785714e+02,    5.000000e+00
    2089,   -1.071429e+02,    1.785714e+02,    5.000000e+00
    2090,   -1.190476e+02,    1.785714e+02,    5.000000e+00
    2091,   -1.309524e+02,    1.785714e+02,    5.000000e+00
    2092,   -1.428571e+02,    1.785714e+02,    5.000000e+00
    2093,   -1.547619e+02,    1.785714e+02,    5.000000e+00
    2094,   -1.666667e+02,    1.785714e+02,    5.000000e+00
    2095,   -1.785714e+02,    1.785714e+02,    5.000000e+00
    2096,   -1.904762e+02,    1.785714e+02,    5.000000e+00
    2097,   -2.023810e+02,    1.785714e+02,    5.000000e+00
    2098,   -2.142857e+02,    1.785714e+02,    5.000000e+00
    2099,   -2.261905e+02,    1.785714e+02,    5.000000e+00
    2100,   -2.380952e+02,    1.785714e+02,    5.000000e+00
    2101,   -1.190476e+01,    1.904762e+02,    5.000000e+00
    2102,   -2.380952e+01,    1.904762e+02,    5.000000e+00
    2103,   -3.571429e+01,    1.904762e+02,    5.000000e+00
    2104,   -4.761905e+01,    1.904762e+02,    5.000000e+00
    2105,   -5.952381e+01,    1.904762e+02,    5.000000e+00
    2106,   -7.142857e+01,    1.904762e+02,    5.000000e+00
    2107,   -8.333333e+01,    1.904762e+02,    5.000000e+00
    2108,   -9.523810e+01,    1.904762e+02,    5.000000e+00
    2109,   -1.071429e+02,    1.904762e+02,    5.000000e+00
    2110,   -1.190476e+02,    1.904762e+02,    5.000000e+00
    2111,   -1.309524e+02,    1.904762e+02,    5.000000e+00
    2112,   -1.428571e+02,    1.904762e+02,    5.000000e+00
    2113,   -1.547619e+02,    1.904762e+02,    5.000000e+00
    2114,   -1.666667e+02,    1.904762e+02,    5.000000e+00
    2115,   -1.785714e+02,    1.904762e+02,    5.000000e+00
    2116,   -1.904762e+02,    1.904762e+02,    5.000000e+00
    2117,   -2.023810e+02,    1.904762e+02,    5.000000e+00
    2118,   -2.142857e+02,    1.904762e+02,    5.000000e+00
    2119,   -2.261905e+02,    1.904762e+02,    5.000000e+00
    2120,   -2.380952e+02,    1.904762e+02,    5.000000e+00
    2121,   -1.190476e+01,    2.023810e+02,    5.000000e+00
    2122,   -2.380952e+01,    2.023810e+02,    5.000000e+00
    2123,   -3.571429e+01,    2.023810e+02,    5.000000e+00
    2124,   -4.761905e+01,    2.023810e+02,    5.000000e+00
    2125,   -5.952381e+01,    2.023810e+02,    5.000000e+00
    2126,   -7.142857e+01,    2.023810e+02,    5.000000e+00
    2127,   -8.333333e+01,    2.023810e+02,    5.000000e+00
    2128,   -9.523810e+01,    2.023810e+02,    5.000000e+00
    2129,   -1.071429e+02,    2.023810e+02,    5.000000e+00
    2130,   -1.190476e+02,    2.023810e+02,    5.000000e+00
    2131,   -1.309524e+02,    2.023810e+02,    5.000000e+00
    2132,   -1.428571e+02,    2.023810e+02,    5.000000e+00
    2133,   -1.547619e+02,    2.023810e+02,    5.000000e+00
    2134,   -1.666667e+02,    2.023810e+02,    5.000000e+00
    2135,   -1.785714e+02,    2.023810e+02,    5.000000e+00
    2136,   -1.904762e+02,    2.023810e+02,    5.000000e+00
    2137,   -2.023810e+02,    2.023810e+02,    5.000000e+00
    2138,   -2.142857e+02,    2.023810e+02,    5.000000e+00
    2139,   -2.261905e+02,    2.023810e+02,    5.000000e+00
    2140,   -2.380952e+02,    2.023810e+02,    5.000000e+00
    2141,   -1.190476e+01,    2.142857e+02,    5.000000e+00
    2142,   -2.380952e+01,    2.142857e+02,    5.000000e+00
    2143,   -3.571429e+01,    2.142857e+02,    5.000000e+00
    2144,   -4.761905e+01,    2.142857e+02,    5.000000e+00
    2145,   -5.952381e+01,    2.142857e+02,    5.000000e+00
    2146,   -7.142857e+01,    2.142857e+02,    5.000000e+00
    2147,   -8.333333e+01,    2.142857e+02,    5.000000e+00
    2148,   -9.523810e+01,    2.142857e+02,    5.000000e+00
    2149,   -1.071429e+02,    2.142857e+02,    5.000000e+00
    2150,   -1.190476e+02,    2.142857e+02,    5.000000e+00
    2151,   -1.309524e+02,    2.142857e+02,    5.000000e+00
    2152,   -1.428571e+02,    2.142857e+02,    5.000000e+00
    2153,   -1.547619e+02,    2.142857e+02,    5.000000e+00
    2154,   -1.666667e+02,    2.142857e+02,    5.000000e+00
    2155,   -1.785714e+02,    2.142857e+02,    5.000000e+00
    2156,   -1.904762e+02,    2.142857e+02,    5.000000e+00
    2157,   -2.023810e+02,    2.142857e+02,    5.000000e+00
    2158,   -2.142857e+02,    2.142857e+02,    5.000000e+00
    2159,   -2.261905e+02,    2.142857e+02,    5.000000e+00
    2160,   -2.380952e+02,    2.142857e+02,    5.000000e+00
    2161,   -1.190476e+01,    2.261905e+02,    5.000000e+00
    2162,   -2.380952e+01,    2.261905e+02,    5.000000e+00
    2163,   -3.571429e+01,    2.261905e+02,    5.000000e+00
    2164,   -4.761905e+01,    2.261905e+02,    5.000000e+00
    2165,   -5.952381e+01,    2.261905e+02,    5.000000e+00
    2166,   -7.142857e+01,    2.261905e+02,    5.000000e+00
    2167,   -8.333333e+01,    2.261905e+02,    5.000000e+00
    2168,   -9.523810e+01,    2.261905e+02,    5.000000e+00
    2169,   -1.071429e+02,    2.261905e+02,    5.000000e+00
    2170,   -1.190476e+02,    2.261905e+02,    5.000000e+00
    2171,   -1.309524e+02,    2.261905e+02,    5.000000e+00
    2172,   -1.428571e+02,    2.261905e+02,    5.000000e+00
    2173,   -1.547619e+02,    2.261905e+02,    5.000000e+00
    2174,   -1.666667e+02,    2.261905e+02,    5.000000e+00
    2175,   -1.785714e+02,    2.261905e+02,    5.000000e+00
    2176,   -1.904762e+02,    2.261905e+02,    5.000000e+00
    2177,   -2.023810e+02,    2.261905e+02,    5.000000e+00
    2178,   -2.142857e+02,    2.261905e+02,    5.000000e+00
    2179,   -2.261905e+02,    2.261905e+02,    5.000000e+00
    2180,   -2.380952e+02,    2.261905e+02,    5.000000e+00
    2181,   -1.190476e+01,    2.380952e+02,    5.000000e+00
    2182,   -2.380952e+01,    2.380952e+02,    5.000000e+00
    2183,   -3.571429e+01,    2.380952e+02,    5.000000e+00
    2184,   -4.761905e+01,    2.380952e+02,    5.000000e+00
    2185,   -5.952381e+01,    2.380952e+02,    5.000000e+00
    2186,   -7.142857e+01,    2.380952e+02,    5.000000e+00
    2187,   -8.333333e+01,    2.380952e+02,    5.000000e+00
    2188,   -9.523810e+01,    2.380952e+02,    5.000000e+00
    2189,   -1.071429e+02,    2.380952e+02,    5.000000e+00
    2190,   -1.190476e+02,    2.380952e+02,    5.000000e+00
    2191,   -1.309524e+02,    2.380952e+02,    5.000000e+00
    2192,   -1.428571e+02,    2.380952e+02,    5.000000e+00
    2193,   -1.547619e+02,    2.380952e+02,    5.000000e+00
    2194,   -1.666667e+02,    2.380952e+02,    5.000000e+00
    2195,   -1.785714e+02,    2.380952e+02,    5.000000e+00
    2196,   -1.904762e+02,    2.380952e+02,    5.000000e+00
    2197,   -2.023810e+02,    2.380952e+02,    5.000000e+00
    2198,   -2.142857e+02,    2.380952e+02,    5.000000e+00
    2199,   -2.261905e+02,    2.380952e+02,    5.000000e+00
    2200,   -2.380952e+02,    2.380952e+02,    5.000000e+00
    2201,    1.882353e+02,    2.500000e+02,    5.000000e+00
    2202,    1.764706e+02,    2.500000e+02,    5.000000e+00
    2203,    1.647059e+02,    2.500000e+02,    5.000000e+00
    2204,    1.529412e+02,    2.500000e+02,    5.000000e+00
    2205,    1.411765e+02,    2.500000e+02,    5.000000e+00
    2206,    1.294118e+02,    2.500000e+02,    5.000000e+00
    2207,    1.176471e+02,    2.500000e+02,    5.000000e+00
    2208,    1.058824e+02,    2.500000e+02,    5.000000e+00
    2209,    9.411765e+01,    2.500000e+02,    5.000000e+00
    2210,    8.235294e+01,    2.500000e+02,    5.000000e+00
    2211,    7.058824e+01,    2.500000e+02,    5.000000e+00
    2212,    5.882353e+01,    2.500000e+02,    5.000000e+00
    2213,    4.705882e+01,    2.500000e+02,    5.000000e+00
    2214,    3.529412e+01,    2.500000e+02,    5.000000e+00
    2215,    2.352941e+01,    2.500000e+02,    5.000000e+00
    2216,    1.176471e+01,    2.500000e+02,    5.000000e+00
    2217,    1.882353e+02,    0.000000e+00,    5.000000e+00
    2218,    1.764706e+02,    0.000000e+00,    5.000000e+00
    2219,    1.647059e+02,    0.000000e+00,    5.000000e+00
    2220,    1.529412e+02,    0.000000e+00,    5.000000e+00
    2221,    1.411765e+02,    0.000000e+00,    5.000000e+00
    2222,    1.294118e+02,    0.000000e+00,    5.000000e+00
    2223,    1.176471e+02,    0.000000e+00,    5.000000e+00
    2224,    1.058824e+02,    0.000000e+00,    5.000000e+00
    2225,    9.411765e+01,    0.000000e+00,    5.000000e+00
    2226,    8.235294e+01,    0.000000e+00,    5.000000e+00
    2227,    7.058824e+01,    0.000000e+00,    5.000000e+00
    2228,    5.882353e+01,    0.000000e+00,    5.000000e+00
    2229,    4.705882e+01,    0.000000e+00,    5.000000e+00
    2230,    3.529412e+01,    0.000000e+00,    5.000000e+00
    2231,    2.352941e+01,    0.000000e+00,    5.000000e+00
    2232,    1.176471e+01,    0.000000e+00,    5.000000e+00
    2233,    1.882353e+02,    2.380952e+02,    5.000000e+00
    2234,    1.882353e+02,    2.261905e+02,    5.000000e+00
    2235,    1.882353e+02,    2.142857e+02,    5.000000e+00
    2236,    1.882353e+02,    2.023810e+02,    5.000000e+00
    2237,    1.882353e+02,    1.904762e+02,    5.000000e+00
    2238,    1.882353e+02,    1.785714e+02,    5.000000e+00
    2239,    1.882353e+02,    1.666667e+02,    5.000000e+00
    2240,    1.882353e+02,    1.547619e+02,    5.000000e+00
    2241,    1.882353e+02,    1.428571e+02,    5.000000e+00
    2242,    1.882353e+02,    1.309524e+02,    5.000000e+00
    2243,    1.882353e+02,    1.190476e+02,    5.000000e+00
    2244,    1.882353e+02,    1.071429e+02,    5.000000e+00
    2245,    1.882353e+02,    9.523810e+01,    5.000000e+00
    2246,    1.882353e+02,    8.333333e+01,    5.000000e+00
    2247,    1.882353e+02,    7.142857e+01,    5.000000e+00
    2248,    1.882353e+02,    5.952381e+01,    5.000000e+00
    2249,    1.882353e+02,    4.761905e+01,    5.000000e+00
    2250,    1.882353e+02,    3.571429e+01,    5.000000e+00
    2251,    1.882353e+02,    2.380952e+01,    5.000000e+00
    2252,    1.882353e+02,    1.190476e+01,    5.000000e+00
    2253,    1.764706e+02,    2.380952e+02,    5.000000e+00
    2254,    1.764706e+02,    2.261905e+02,    5.000000e+00
    2255,    1.764706e+02,    2.142857e+02,    5.000000e+00
    2256,    1.764706e+02,    2.023810e+02,    5.000000e+00
    2257,    1.764706e+02,    1.904762e+02,    5.000000e+00
    2258,    1.764706e+02,    1.785714e+02,    5.000000e+00
    2259,    1.764706e+02,    1.666667e+02,    5.000000e+00
    2260,    1.764706e+02,    1.547619e+02,    5.000000e+00
    2261,    1.764706e+02,    1.428571e+02,    5.000000e+00
    2262,    1.764706e+02,    1.309524e+02,    5.000000e+00
    2263,    1.764706e+02,    1.190476e+02,    5.000000e+00
    2264,    1.764706e+02,    1.071429e+02,    5.000000e+00
    2265,    1.764706e+02,    9.523810e+01,    5.000000e+00
    2266,    1.764706e+02,    8.333333e+01,    5.000000e+00
    2267,    1.764706e+02,    7.142857e+01,    5.000000e+00
    2268,    1.764706e+02,    5.952381e+01,    5.000000e+00
    2269,    1.764706e+02,    4.761905e+01,    5.000000e+00
    2270,    1.764706e+02,    3.571429e+01,    5.000000e+00
    2271,    1.764706e+02,    2.380952e+01,    5.000000e+00
    2272,    1.764706e+02,    1.190476e+01,    5.000000e+00
    2273,    1.647059e+02,    2.380952e+02,    5.000000e+00
    2274,    1.647059e+02,    2.261905e+02,    5.000000e+00
    2275,    1.647059e+02,    2.142857e+02,    5.000000e+00
    2276,    1.647059e+02,    2.023810e+02,    5.000000e+00
    2277,    1.647059e+02,    1.904762e+02,    5.000000e+00
    2278,    1.647059e+02,    1.785714e+02,    5.000000e+00
    2279,    1.647059e+02,    1.666667e+02,    5.000000e+00
    2280,    1.647059e+02,    1.547619e+02,    5.000000e+00
    2281,    1.647059e+02,    1.428571e+02,    5.000000e+00
    2282,    1.647059e+02,    1.309524e+02,    5.000000e+00
    2283,    1.647059e+02,    1.190476e+02,    5.000000e+00
    2284,    1.647059e+02,    1.071429e+02,    5.000000e+00
    2285,    1.647059e+02,    9.523810e+01,    5.000000e+00
    2286,    1.647059e+02,    8.333333e+01,    5.000000e+00
    2287,    1.647059e+02,    7.142857e+01,    5.000000e+00
    2288,    1.647059e+02,    5.952381e+01,    5.000000e+00
    2289,    1.647059e+02,    4.761905e+01,    5.000000e+00
    2290,    1.647059e+02,    3.571429e+01,    5.000000e+00
    2291,    1.647059e+02,    2.380952e+01,    5.000000e+00
    2292,    1.647059e+02,    1.190476e+01,    5.000000e+00
    2293,    1.529412e+02,    2.380952e+02,    5.000000e+00
    2294,    1.529412e+02,    2.261905e+02,    5.000000e+00
    2295,    1.529412e+02,    2.142857e+02,    5.000000e+00
    2296,    1.529412e+02,    2.023810e+02,    5.000000e+00
    2297,    1.529412e+02,    1.904762e+02,    5.000000e+00
    2298,    1.529412e+02,    1.785714e+02,    5.000000e+00
    2299,    1.529412e+02,    1.666667e+02,    5.000000e+00
    2300,    1.529412e+02,    1.547619e+02,    5.000000e+00
    2301,    1.529412e+02,    1.428571e+02,    5.000000e+00
    2302,    1.529412e+02,    1.309524e+02,    5.000000e+00
    2303,    1.529412e+02,    1.190476e+02,    5.000000e+00
    2304,    1.529412e+02,    1.071429e+02,    5.000000e+00
    2305,    1.529412e+02,    9.523810e+01,    5.000000e+00
    2306,    1.529412e+02,    8.333333e+01,    5.000000e+00
    2307,    1.529412e+02,    7.142857e+01,    5.000000e+00
    2308,    1.529412e+02,    5.952381e+01,    5.000000e+00
    2309,    1.529412e+02,    4.761905e+01,    5.000000e+00
    2310,    1.529412e+02,    3.571429e+01,    5.000000e+00
    2311,    1.529412e+02,    2.380952e+01,    5.000000e+00
    2312,    1.529412e+02,    1.190476e+01,    5.000000e+00
    2313,    1.411765e+02,    2.380952e+02,    5.000000e+00
    2314,    1.411765e+02,    2.261905e+02,    5.000000e+00
    2315,    1.411765e+02,    2.142857e+02,    5.000000e+00
    2316,    1.411765e+02,    2.023810e+02,    5.000000e+00
    2317,    1.411765e+02,    1.904762e+02,    5.000000e+00
    2318,    1.411765e+02,    1.785714e+02,    5.000000e+00
    2319,    1.411765e+02,    1.666667e+02,    5.000000e+00
    2320,    1.411765e+02,    1.547619e+02,    5.000000e+00
    2321,    1.411765e+02,    1.428571e+02,    5.000000e+00
    2322,    1.411765e+02,    1.309524e+02,    5.000000e+00
    2323,    1.411765e+02,    1.190476e+02,    5.000000e+00
    2324,    1.411765e+02,    1.071429e+02,    5.000000e+00
    2325,    1.411765e+02,    9.523810e+01,    5.000000e+00
    2326,    1.411765e+02,    8.333333e+01,    5.000000e+00
    2327,    1.411765e+02,    7.142857e+01,    5.000000e+00
    2328,    1.411765e+02,    5.952381e+01,    5.000000e+00
    2329,    1.411765e+02,    4.761905e+01,    5.000000e+00
    2330,    1.411765e+02,    3.571429e+01,    5.000000e+00
    2331,    1.411765e+02,    2.380952e+01,    5.000000e+00
    2332,    1.411765e+02,    1.190476e+01,    5.000000e+00
    2333,    1.294118e+02,    2.380952e+02,    5.000000e+00
    2334,    1.294118e+02,    2.261905e+02,    5.000000e+00
    2335,    1.294118e+02,    2.142857e+02,    5.000000e+00
    2336,    1.294118e+02,    2.023810e+02,    5.000000e+00
    2337,    1.294118e+02,    1.904762e+02,    5.000000e+00
    2338,    1.294118e+02,    1.785714e+02,    5.000000e+00
    2339,    1.294118e+02,    1.666667e+02,    5.000000e+00
    2340,    1.294118e+02,    1.547619e+02,    5.000000e+00
    2341,    1.294118e+02,    1.428571e+02,    5.000000e+00
    2342,    1.294118e+02,    1.309524e+02,    5.000000e+00
    2343,    1.294118e+02,    1.190476e+02,    5.000000e+00
    2344,    1.294118e+02,    1.071429e+02,    5.000000e+00
    2345,    1.294118e+02,    9.523810e+01,    5.000000e+00
    2346,    1.294118e+02,    8.333333e+01,    5.000000e+00
    2347,    1.294118e+02,    7.142857e+01,    5.000000e+00
    2348,    1.294118e+02,    5.952381e+01,    5.000000e+00
    2349,    1.294118e+02,    4.761905e+01,    5.000000e+00
    2350,    1.294118e+02,    3.571429e+01,    5.000000e+00
    2351,    1.294118e+02,    2.380952e+01,    5.000000e+00
    2352,    1.294118e+02,    1.190476e+01,    5.000000e+00
    2353,    1.176471e+02,    2.380952e+02,    5.000000e+00
    2354,    1.176471e+02,    2.261905e+02,    5.000000e+00
    2355,    1.176471e+02,    2.142857e+02,    5.000000e+00
    2356,    1.176471e+02,    2.023810e+02,    5.000000e+00
    2357,    1.176471e+02,    1.904762e+02,    5.000000e+00
    2358,    1.176471e+02,    1.785714e+02,    5.000000e+00
    2359,    1.176471e+02,    1.666667e+02,    5.000000e+00
    2360,    1.176471e+02,    1.547619e+02,    5.000000e+00
    2361,    1.176471e+02,    1.428571e+02,    5.000000e+00
    2362,    1.176471e+02,    1.309524e+02,    5.000000e+00
    2363,    1.176471e+02,    1.190476e+02,    5.000000e+00
    2364,    1.176471e+02,    1.071429e+02,    5.000000e+00
    2365,    1.176471e+02,    9.523810e+01,    5.000000e+00
    2366,    1.176471e+02,    8.333333e+01,    5.000000e+00
    2367,    1.176471e+02,    7.142857e+01,    5.000000e+00
    2368,    1.176471e+02,    5.952381e+01,    5.000000e+00
    2369,    1.176471e+02,    4.761905e+01,    5.000000e+00
    2370,    1.176471e+02,    3.571429e+01,    5.000000e+00
    2371,    1.176471e+02,    2.380952e+01,    5.000000e+00
    2372,    1.176471e+02,    1.190476e+01,    5.000000e+00
    2373,    1.058824e+02,    2.380952e+02,    5.000000e+00
    2374,    1.058824e+02,    2.261905e+02,    5.000000e+00
    2375,    1.058824e+02,    2.142857e+02,    5.000000e+00
    2376,    1.058824e+02,    2.023810e+02,    5.000000e+00
    2377,    1.058824e+02,    1.904762e+02,    5.000000e+00
    2378,    1.058824e+02,    1.785714e+02,    5.000000e+00
    2379,    1.058824e+02,    1.666667e+02,    5.000000e+00
    2380,    1.058824e+02,    1.547619e+02,    5.000000e+00
    2381,    1.058824e+02,    1.428571e+02,    5.000000e+00
    2382,    1.058824e+02,    1.309524e+02,    5.000000e+00
    2383,    1.058824e+02,    1.190476e+02,    5.000000e+00
    2384,    1.058824e+02,    1.071429e+02,    5.000000e+00
    2385,    1.058824e+02,    9.523810e+01,    5.000000e+00
    2386,    1.058824e+02,    8.333333e+01,    5.000000e+00
    2387,    1.058824e+02,    7.142857e+01,    5.000000e+00
    2388,    1.058824e+02,    5.952381e+01,    5.000000e+00
    2389,    1.058824e+02,    4.761905e+01,    5.000000e+00
    2390,    1.058824e+02,    3.571429e+01,    5.000000e+00
    2391,    1.058824e+02,    2.380952e+01,    5.000000e+00
    2392,    1.058824e+02,    1.190476e+01,    5.000000e+00
    2393,    9.411765e+01,    2.380952e+02,    5.000000e+00
    2394,    9.411765e+01,    2.261905e+02,    5.000000e+00
    2395,    9.411765e+01,    2.142857e+02,    5.000000e+00
    2396,    9.411765e+01,    2.023810e+02,    5.000000e+00
    2397,    9.411765e+01,    1.904762e+02,    5.000000e+00
    2398,    9.411765e+01,    1.785714e+02,    5.000000e+00
    2399,    9.411765e+01,    1.666667e+02,    5.000000e+00
    2400,    9.411765e+01,    1.547619e+02,    5.000000e+00
    2401,    9.411765e+01,    1.428571e+02,    5.000000e+00
    2402,    9.411765e+01,    1.309524e+02,    5.000000e+00
    2403,    9.411765e+01,    1.190476e+02,    5.000000e+00
    2404,    9.411765e+01,    1.071429e+02,    5.000000e+00
    2405,    9.411765e+01,    9.523810e+01,    5.000000e+00
    2406,    9.411765e+01,    8.333333e+01,    5.000000e+00
    2407,    9.411765e+01,    7.142857e+01,    5.000000e+00
    2408,    9.411765e+01,    5.952381e+01,    5.000000e+00
    2409,    9.411765e+01,    4.761905e+01,    5.000000e+00
    2410,    9.411765e+01,    3.571429e+01,    5.000000e+00
    2411,    9.411765e+01,    2.380952e+01,    5.000000e+00
    2412,    9.411765e+01,    1.190476e+01,    5.000000e+00
    2413,    8.235294e+01,    2.380952e+02,    5.000000e+00
    2414,    8.235294e+01,    2.261905e+02,    5.000000e+00
    2415,    8.235294e+01,    2.142857e+02,    5.000000e+00
    2416,    8.235294e+01,    2.023810e+02,    5.000000e+00
    2417,    8.235294e+01,    1.904762e+02,    5.000000e+00
    2418,    8.235294e+01,    1.785714e+02,    5.000000e+00
    2419,    8.235294e+01,    1.666667e+02,    5.000000e+00
    2420,    8.235294e+01,    1.547619e+02,    5.000000e+00
    2421,    8.235294e+01,    1.428571e+02,    5.000000e+00
    2422,    8.235294e+01,    1.309524e+02,    5.000000e+00
    2423,    8.235294e+01,    1.190476e+02,    5.000000e+00
    2424,    8.235294e+01,    1.071429e+02,    5.000000e+00
    2425,    8.235294e+01,    9.523810e+01,    5.000000e+00
    2426,    8.235294e+01,    8.333333e+01,    5.000000e+00
    2427,    8.235294e+01,    7.142857e+01,    5.000000e+00
    2428,    8.235294e+01,    5.952381e+01,    5.000000e+00
    2429,    8.235294e+01,    4.761905e+01,    5.000000e+00
    2430,    8.235294e+01,    3.571429e+01,    5.000000e+00
    2431,    8.235294e+01,    2.380952e+01,    5.000000e+00
    2432,    8.235294e+01,    1.190476e+01,    5.000000e+00
    2433,    7.058824e+01,    2.380952e+02,    5.000000e+00
    2434,    7.058824e+01,    2.261905e+02,    5.000000e+00
    2435,    7.058824e+01,    2.142857e+02,    5.000000e+00
    2436,    7.058824e+01,    2.023810e+02,    5.000000e+00
    2437,    7.058824e+01,    1.904762e+02,    5.000000e+00
    2438,    7.058824e+01,    1.785714e+02,    5.000000e+00
    2439,    7.058824e+01,    1.666667e+02,    5.000000e+00
    2440,    7.058824e+01,    1.547619e+02,    5.000000e+00
    2441,    7.058824e+01,    1.428571e+02,    5.000000e+00
    2442,    7.058824e+01,    1.309524e+02,    5.000000e+00
    2443,    7.058824e+01,    1.190476e+02,    5.000000e+00
    2444,    7.058824e+01,    1.071429e+02,    5.000000e+00
    2445,    7.058824e+01,    9.523810e+01,    5.000000e+00
    2446,    7.058824e+01,    8.333333e+01,    5.000000e+00
    2447,    7.058824e+01,    7.142857e+01,    5.000000e+00
    2448,    7.058824e+01,    5.952381e+01,    5.000000e+00
    2449,    7.058824e+01,    4.761905e+01,    5.000000e+00
    2450,    7.058824e+01,    3.571429e+01,    5.000000e+00
    2451,    7.058824e+01,    2.380952e+01,    5.000000e+00
    2452,    7.058824e+01,    1.190476e+01,    5.000000e+00
    2453,    5.882353e+01,    2.380952e+02,    5.000000e+00
    2454,    5.882353e+01,    2.261905e+02,    5.000000e+00
    2455,    5.882353e+01,    2.142857e+02,    5.000000e+00
    2456,    5.882353e+01,    2.023810e+02,    5.000000e+00
    2457,    5.882353e+01,    1.904762e+02,    5.000000e+00
    2458,    5.882353e+01,    1.785714e+02,    5.000000e+00
    2459,    5.882353e+01,    1.666667e+02,    5.000000e+00
    2460,    5.882353e+01,    1.547619e+02,    5.000000e+00
    2461,    5.882353e+01,    1.428571e+02,    5.000000e+00
    2462,    5.882353e+01,    1.309524e+02,    5.000000e+00
    2463,    5.882353e+01,    1.190476e+02,    5.000000e+00
    2464,    5.882353e+01,    1.071429e+02,    5.000000e+00
    2465,    5.882353e+01,    9.523810e+01,    5.000000e+00
    2466,    5.882353e+01,    8.333333e+01,    5.000000e+00
    2467,    5.882353e+01,    7.142857e+01,    5.000000e+00
    2468,    5.882353e+01,    5.952381e+01,    5.000000e+00
    2469,    5.882353e+01,    4.761905e+01,    5.000000e+00
    2470,    5.882353e+01,    3.571429e+01,    5.000000e+00
    2471,    5.882353e+01,    2.380952e+01,    5.000000e+00
    2472,    5.882353e+01,    1.190476e+01,    5.000000e+00
    2473,    4.705882e+01,    2.380952e+02,    5.000000e+00
    2474,    4.705882e+01,    2.261905e+02,    5.000000e+00
    2475,    4.705882e+01,    2.142857e+02,    5.000000e+00
    2476,    4.705882e+01,    2.023810e+02,    5.000000e+00
    2477,    4.705882e+01,    1.904762e+02,    5.000000e+00
    2478,    4.705882e+01,    1.785714e+02,    5.000000e+00
    2479,    4.705882e+01,    1.666667e+02,    5.000000e+00
    2480,    4.705882e+01,    1.547619e+02,    5.000000e+00
    2481,    4.705882e+01,    1.428571e+02,    5.000000e+00
    2482,    4.705882e+01,    1.309524e+02,    5.000000e+00
    2483,    4.705882e+01,    1.190476e+02,    5.000000e+00
    2484,    4.705882e+01,    1.071429e+02,    5.000000e+00
    2485,    4.705882e+01,    9.523810e+01,    5.000000e+00
    2486,    4.705882e+01,    8.333333e+01,    5.000000e+00
    2487,    4.705882e+01,    7.142857e+01,    5.000000e+00
    2488,    4.705882e+01,    5.952381e+01,    5.000000e+00
    2489,    4.705882e+01,    4.761905e+01,    5.000000e+00
    2490,    4.705882e+01,    3.571429e+01,    5.000000e+00
    2491,    4.705882e+01,    2.380952e+01,    5.000000e+00
    2492,    4.705882e+01,    1.190476e+01,    5.000000e+00
    2493,    3.529412e+01,    2.380952e+02,    5.000000e+00
    2494,    3.529412e+01,    2.261905e+02,    5.000000e+00
    2495,    3.529412e+01,    2.142857e+02,    5.000000e+00
    2496,    3.529412e+01,    2.023810e+02,    5.000000e+00
    2497,    3.529412e+01,    1.904762e+02,    5.000000e+00
    2498,    3.529412e+01,    1.785714e+02,    5.000000e+00
    2499,    3.529412e+01,    1.666667e+02,    5.000000e+00
    2500,    3.529412e+01,    1.547619e+02,    5.000000e+00
    2501,    3.529412e+01,    1.428571e+02,    5.000000e+00
    2502,    3.529412e+01,    1.309524e+02,    5.000000e+00
    2503,    3.529412e+01,    1.190476e+02,    5.000000e+00
    2504,    3.529412e+01,    1.071429e+02,    5.000000e+00
    2505,    3.529412e+01,    9.523810e+01,    5.000000e+00
    2506,    3.529412e+01,    8.333333e+01,    5.000000e+00
    2507,    3.529412e+01,    7.142857e+01,    5.000000e+00
    2508,    3.529412e+01,    5.952381e+01,    5.000000e+00
    2509,    3.529412e+01,    4.761905e+01,    5.000000e+00
    2510,    3.529412e+01,    3.571429e+01,    5.000000e+00
    2511,    3.529412e+01,    2.380952e+01,    5.000000e+00
    2512,    3.529412e+01,    1.190476e+01,    5.000000e+00
    2513,    2.352941e+01,    2.380952e+02,    5.000000e+00
    2514,    2.352941e+01,    2.261905e+02,    5.000000e+00
    2515,    2.352941e+01,    2.142857e+02,    5.000000e+00
    2516,    2.352941e+01,    2.023810e+02,    5.000000e+00
    2517,    2.352941e+01,    1.904762e+02,    5.000000e+00
    2518,    2.352941e+01,    1.785714e+02,    5.000000e+00
    2519,    2.352941e+01,    1.666667e+02,    5.000000e+00
    2520,    2.352941e+01,    1.547619e+02,    5.000000e+00
    2521,    2.352941e+01,    1.428571e+02,    5.000000e+00
    2522,    2.352941e+01,    1.309524e+02,    5.000000e+00
    2523,    2.352941e+01,    1.190476e+02,    5.000000e+00
    2524,    2.352941e+01,    1.071429e+02,    5.000000e+00
    2525,    2.352941e+01,    9.523810e+01,    5.000000e+00
    2526,    2.352941e+01,    8.333333e+01,    5.000000e+00
    2527,    2.352941e+01,    7.142857e+01,    5.000000e+00
    2528,    2.352941e+01,    5.952381e+01,    5.000000e+00
    2529,    2.352941e+01,    4.761905e+01,    5.000000e+00
    2530,    2.352941e+01,    3.571429e+01,    5.000000e+00
    2531,    2.352941e+01,    2.380952e+01,    5.000000e+00
    2532,    2.352941e+01,    1.190476e+01,    5.000000e+00
    2533,    1.176471e+01,    2.380952e+02,    5.000000e+00
    2534,    1.176471e+01,    2.261905e+02,    5.000000e+00
    2535,    1.176471e+01,    2.142857e+02,    5.000000e+00
    2536,    1.176471e+01,    2.023810e+02,    5.000000e+00
    2537,    1.176471e+01,    1.904762e+02,    5.000000e+00
    2538,    1.176471e+01,    1.785714e+02,    5.000000e+00
    2539,    1.176471e+01,    1.666667e+02,    5.000000e+00
    2540,    1.176471e+01,    1.547619e+02,    5.000000e+00
    2541,    1.176471e+01,    1.428571e+02,    5.000000e+00
    2542,    1.176471e+01,    1.309524e+02,    5.000000e+00
    2543,    1.176471e+01,    1.190476e+02,    5.000000e+00
    2544,    1.176471e+01,    1.071429e+02,    5.000000e+00
    2545,    1.176471e+01,    9.523810e+01,    5.000000e+00
    2546,    1.176471e+01,    8.333333e+01,    5.000000e+00
    2547,    1.176471e+01,    7.142857e+01,    5.000000e+00
    2548,    1.176471e+01,    5.952381e+01,    5.000000e+00
    2549,    1.176471e+01,    4.761905e+01,    5.000000e+00
    2550,    1.176471e+01,    3.571429e+01,    5.000000e+00
    2551,    1.176471e+01,    2.380952e+01,    5.000000e+00
    2552,    1.176471e+01,    1.190476e+01,    5.000000e+00
    2553,    0.000000e+00,   -1.153846e+01,    5.000000e+00
    2554,    0.000000e+00,   -2.307692e+01,    5.000000e+00
    2555,    0.000000e+00,   -3.461538e+01,    5.000000e+00
    2556,    0.000000e+00,   -4.615385e+01,    5.000000e+00
    2557,    0.000000e+00,   -5.769231e+01,    5.000000e+00
    2558,    0.000000e+00,   -6.923077e+01,    5.000000e+00
    2559,    0.000000e+00,   -8.076923e+01,    5.000000e+00
    2560,    0.000000e+00,   -9.230769e+01,    5.000000e+00
    2561,    0.000000e+00,   -1.038462e+02,    5.000000e+00
    2562,    0.000000e+00,   -1.153846e+02,    5.000000e+00
    2563,    0.000000e+00,   -1.269231e+02,    5.000000e+00
    2564,    0.000000e+00,   -1.384615e+02,    5.000000e+00
    2565,   -2.500000e+02,   -1.153846e+01,    5.000000e+00
    2566,   -2.500000e+02,   -2.307692e+01,    5.000000e+00
    2567,   -2.500000e+02,   -3.461538e+01,    5.000000e+00
    2568,   -2.500000e+02,   -4.615385e+01,    5.000000e+00
    2569,   -2.500000e+02,   -5.769231e+01,    5.000000e+00
    2570,   -2.500000e+02,   -6.923077e+01,    5.000000e+00
    2571,   -2.500000e+02,   -8.076923e+01,    5.000000e+00
    2572,   -2.500000e+02,   -9.230769e+01,    5.000000e+00
    2573,   -2.500000e+02,   -1.038462e+02,    5.000000e+00
    2574,   -2.500000e+02,   -1.153846e+02,    5.000000e+00
    2575,   -2.500000e+02,   -1.269231e+02,    5.000000e+00
    2576,   -2.500000e+02,   -1.384615e+02,    5.000000e+00
    2577,   -1.190476e+01,   -1.384615e+02,    5.000000e+00
    2578,   -2.380952e+01,   -1.384615e+02,    5.000000e+00
    2579,   -3.571429e+01,   -1.384615e+02,    5.000000e+00
    2580,   -4.761905e+01,   -1.384615e+02,    5.000000e+00
    2581,   -5.952381e+01,   -1.384615e+02,    5.000000e+00
    2582,   -7.142857e+01,   -1.384615e+02,    5.000000e+00
    2583,   -8.333333e+01,   -1.384615e+02,    5.000000e+00
    2584,   -9.523810e+01,   -1.384615e+02,    5.000000e+00
    2585,   -1.071429e+02,   -1.384615e+02,    5.000000e+00
    2586,   -1.190476e+02,   -1.384615e+02,    5.000000e+00
    2587,   -1.309524e+02,   -1.384615e+02,    5.000000e+00
    2588,   -1.428571e+02,   -1.384615e+02,    5.000000e+00
    2589,   -1.547619e+02,   -1.384615e+02,    5.000000e+00
    2590,   -1.666667e+02,   -1.384615e+02,    5.000000e+00
    2591,   -1.785714e+02,   -1.384615e+02,    5.000000e+00
    2592,   -1.904762e+02,   -1.384615e+02,    5.000000e+00
    2593,   -2.023810e+02,   -1.384615e+02,    5.000000e+00
    2594,   -2.142857e+02,   -1.384615e+02,    5.000000e+00
    2595,   -2.261905e+02,   -1.384615e+02,    5.000000e+00
    2596,   -2.380952e+02,   -1.384615e+02,    5.000000e+00
    2597,   -1.190476e+01,   -1.269231e+02,    5.000000e+00
    2598,   -2.380952e+01,   -1.269231e+02,    5.000000e+00
    2599,   -3.571429e+01,   -1.269231e+02,    5.000000e+00
    2600,   -4.761905e+01,   -1.269231e+02,    5.000000e+00
    2601,   -5.952381e+01,   -1.269231e+02,    5.000000e+00
    2602,   -7.142857e+01,   -1.269231e+02,    5.000000e+00
    2603,   -8.333333e+01,   -1.269231e+02,    5.000000e+00
    2604,   -9.523810e+01,   -1.269231e+02,    5.000000e+00
    2605,   -1.071429e+02,   -1.269231e+02,    5.000000e+00
    2606,   -1.190476e+02,   -1.269231e+02,    5.000000e+00
    2607,   -1.309524e+02,   -1.269231e+02,    5.000000e+00
    2608,   -1.428571e+02,   -1.269231e+02,    5.000000e+00
    2609,   -1.547619e+02,   -1.269231e+02,    5.000000e+00
    2610,   -1.666667e+02,   -1.269231e+02,    5.000000e+00
    2611,   -1.785714e+02,   -1.269231e+02,    5.000000e+00
    2612,   -1.904762e+02,   -1.269231e+02,    5.000000e+00
    2613,   -2.023810e+02,   -1.269231e+02,    5.000000e+00
    2614,   -2.142857e+02,   -1.269231e+02,    5.000000e+00
    2615,   -2.261905e+02,   -1.269231e+02,    5.000000e+00
    2616,   -2.380952e+02,   -1.269231e+02,    5.000000e+00
    2617,   -1.190476e+01,   -1.153846e+02,    5.000000e+00
    2618,   -2.380952e+01,   -1.153846e+02,    5.000000e+00
    2619,   -3.571429e+01,   -1.153846e+02,    5.000000e+00
    2620,   -4.761905e+01,   -1.153846e+02,    5.000000e+00
    2621,   -5.952381e+01,   -1.153846e+02,    5.000000e+00
    2622,   -7.142857e+01,   -1.153846e+02,    5.000000e+00
    2623,   -8.333333e+01,   -1.153846e+02,    5.000000e+00
    2624,   -9.523810e+01,   -1.153846e+02,    5.000000e+00
    2625,   -1.071429e+02,   -1.153846e+02,    5.000000e+00
    2626,   -1.190476e+02,   -1.153846e+02,    5.000000e+00
    2627,   -1.309524e+02,   -1.153846e+02,    5.000000e+00
    2628,   -1.428571e+02,   -1.153846e+02,    5.000000e+00
    2629,   -1.547619e+02,   -1.153846e+02,    5.000000e+00
    2630,   -1.666667e+02,   -1.153846e+02,    5.000000e+00
    2631,   -1.785714e+02,   -1.153846e+02,    5.000000e+00
    2632,   -1.904762e+02,   -1.153846e+02,    5.000000e+00
    2633,   -2.023810e+02,   -1.153846e+02,    5.000000e+00
    2634,   -2.142857e+02,   -1.153846e+02,    5.000000e+00
    2635,   -2.261905e+02,   -1.153846e+02,    5.000000e+00
    2636,   -2.380952e+02,   -1.153846e+02,    5.000000e+00
    2637,   -1.190476e+01,   -1.038462e+02,    5.000000e+00
    2638,   -2.380952e+01,   -1.038462e+02,    5.000000e+00
    2639,   -3.571429e+01,   -1.038462e+02,    5.000000e+00
    2640,   -4.761905e+01,   -1.038462e+02,    5.000000e+00
    2641,   -5.952381e+01,   -1.038462e+02,    5.000000e+00
    2642,   -7.142857e+01,   -1.038462e+02,    5.000000e+00
    2643,   -8.333333e+01,   -1.038462e+02,    5.000000e+00
    2644,   -9.523810e+01,   -1.038462e+02,    5.000000e+00
    2645,   -1.071429e+02,   -1.038462e+02,    5.000000e+00
    2646,   -1.190476e+02,   -1.038462e+02,    5.000000e+00
    2647,   -1.309524e+02,   -1.038462e+02,    5.000000e+00
    2648,   -1.428571e+02,   -1.038462e+02,    5.000000e+00
    2649,   -1.547619e+02,   -1.038462e+02,    5.000000e+00
    2650,   -1.666667e+02,   -1.038462e+02,    5.000000e+00
    2651,   -1.785714e+02,   -1.038462e+02,    5.000000e+00
    2652,   -1.904762e+02,   -1.038462e+02,    5.000000e+00
    2653,   -2.023810e+02,   -1.038462e+02,    5.000000e+00
    2654,   -2.142857e+02,   -1.038462e+02,    5.000000e+00
    2655,   -2.261905e+02,   -1.038462e+02,    5.000000e+00
    2656,   -2.380952e+02,   -1.038462e+02,    5.000000e+00
    2657,   -1.190476e+01,   -9.230769e+01,    5.000000e+00
    2658,   -2.380952e+01,   -9.230769e+01,    5.000000e+00
    2659,   -3.571429e+01,   -9.230769e+01,    5.000000e+00
    2660,   -4.761905e+01,   -9.230769e+01,    5.000000e+00
    2661,   -5.952381e+01,   -9.230769e+01,    5.000000e+00
    2662,   -7.142857e+01,   -9.230769e+01,    5.000000e+00
    2663,   -8.333333e+01,   -9.230769e+01,    5.000000e+00
    2664,   -9.523810e+01,   -9.230769e+01,    5.000000e+00
    2665,   -1.071429e+02,   -9.230769e+01,    5.000000e+00
    2666,   -1.190476e+02,   -9.230769e+01,    5.000000e+00
    2667,   -1.309524e+02,   -9.230769e+01,    5.000000e+00
    2668,   -1.428571e+02,   -9.230769e+01,    5.000000e+00
    2669,   -1.547619e+02,   -9.230769e+01,    5.000000e+00
    2670,   -1.666667e+02,   -9.230769e+01,    5.000000e+00
    2671,   -1.785714e+02,   -9.230769e+01,    5.000000e+00
    2672,   -1.904762e+02,   -9.230769e+01,    5.000000e+00
    2673,   -2.023810e+02,   -9.230769e+01,    5.000000e+00
    2674,   -2.142857e+02,   -9.230769e+01,    5.000000e+00
    2675,   -2.261905e+02,   -9.230769e+01,    5.000000e+00
    2676,   -2.380952e+02,   -9.230769e+01,    5.000000e+00
    2677,   -1.190476e+01,   -8.076923e+01,    5.000000e+00
    2678,   -2.380952e+01,   -8.076923e+01,    5.000000e+00
    2679,   -3.571429e+01,   -8.076923e+01,    5.000000e+00
    2680,   -4.761905e+01,   -8.076923e+01,    5.000000e+00
    2681,   -5.952381e+01,   -8.076923e+01,    5.000000e+00
    2682,   -7.142857e+01,   -8.076923e+01,    5.000000e+00
    2683,   -8.333333e+01,   -8.076923e+01,    5.000000e+00
    2684,   -9.523810e+01,   -8.076923e+01,    5.000000e+00
    2685,   -1.071429e+02,   -8.076923e+01,    5.000000e+00
    2686,   -1.190476e+02,   -8.076923e+01,    5.000000e+00
    2687,   -1.309524e+02,   -8.076923e+01,    5.000000e+00
    2688,   -1.428571e+02,   -8.076923e+01,    5.000000e+00
    2689,   -1.547619e+02,   -8.076923e+01,    5.000000e+00
    2690,   -1.666667e+02,   -8.076923e+01,    5.000000e+00
    2691,   -1.785714e+02,   -8.076923e+01,    5.000000e+00
    2692,   -1.904762e+02,   -8.076923e+01,    5.000000e+00
    2693,   -2.023810e+02,   -8.076923e+01,    5.000000e+00
    2694,   -2.142857e+02,   -8.076923e+01,    5.000000e+00
    2695,   -2.261905e+02,   -8.076923e+01,    5.000000e+00
    2696,   -2.380952e+02,   -8.076923e+01,    5.000000e+00
    2697,   -1.190476e+01,   -6.923077e+01,    5.000000e+00
    2698,   -2.380952e+01,   -6.923077e+01,    5.000000e+00
    2699,   -3.571429e+01,   -6.923077e+01,    5.000000e+00
    2700,   -4.761905e+01,   -6.923077e+01,    5.000000e+00
    2701,   -5.952381e+01,   -6.923077e+01,    5.000000e+00
    2702,   -7.142857e+01,   -6.923077e+01,    5.000000e+00
    2703,   -8.333333e+01,   -6.923077e+01,    5.000000e+00
    2704,   -9.523810e+01,   -6.923077e+01,    5.000000e+00
    2705,   -1.071429e+02,   -6.923077e+01,    5.000000e+00
    2706,   -1.190476e+02,   -6.923077e+01,    5.000000e+00
    2707,   -1.309524e+02,   -6.923077e+01,    5.000000e+00
    2708,   -1.428571e+02,   -6.923077e+01,    5.000000e+00
    2709,   -1.547619e+02,   -6.923077e+01,    5.000000e+00
    2710,   -1.666667e+02,   -6.923077e+01,    5.000000e+00
    2711,   -1.785714e+02,   -6.923077e+01,    5.000000e+00
    2712,   -1.904762e+02,   -6.923077e+01,    5.000000e+00
    2713,   -2.023810e+02,   -6.923077e+01,    5.000000e+00
    2714,   -2.142857e+02,   -6.923077e+01,    5.000000e+00
    2715,   -2.261905e+02,   -6.923077e+01,    5.000000e+00
    2716,   -2.380952e+02,   -6.923077e+01,    5.000000e+00
    2717,   -1.190476e+01,   -5.769231e+01,    5.000000e+00
    2718,   -2.380952e+01,   -5.769231e+01,    5.000000e+00
    2719,   -3.571429e+01,   -5.769231e+01,    5.000000e+00
    2720,   -4.761905e+01,   -5.769231e+01,    5.000000e+00
    2721,   -5.952381e+01,   -5.769231e+01,    5.000000e+00
    2722,   -7.142857e+01,   -5.769231e+01,    5.000000e+00
    2723,   -8.333333e+01,   -5.769231e+01,    5.000000e+00
    2724,   -9.523810e+01,   -5.769231e+01,    5.000000e+00
    2725,   -1.071429e+02,   -5.769231e+01,    5.000000e+00
    2726,   -1.190476e+02,   -5.769231e+01,    5.000000e+00
    2727,   -1.309524e+02,   -5.769231e+01,    5.000000e+00
    2728,   -1.428571e+02,   -5.769231e+01,    5.000000e+00
    2729,   -1.547619e+02,   -5.769231e+01,    5.000000e+00
    2730,   -1.666667e+02,   -5.769231e+01,    5.000000e+00
    2731,   -1.785714e+02,   -5.769231e+01,    5.000000e+00
    2732,   -1.904762e+02,   -5.769231e+01,    5.000000e+00
    2733,   -2.023810e+02,   -5.769231e+01,    5.000000e+00
    2734,   -2.142857e+02,   -5.769231e+01,    5.000000e+00
    2735,   -2.261905e+02,   -5.769231e+01,    5.000000e+00
    2736,   -2.380952e+02,   -5.769231e+01,    5.000000e+00
    2737,   -1.190476e+01,   -4.615385e+01,    5.000000e+00
    2738,   -2.380952e+01,   -4.615385e+01,    5.000000e+00
    2739,   -3.571429e+01,   -4.615385e+01,    5.000000e+00
    2740,   -4.761905e+01,   -4.615385e+01,    5.000000e+00
    2741,   -5.952381e+01,   -4.615385e+01,    5.000000e+00
    2742,   -7.142857e+01,   -4.615385e+01,    5.000000e+00
    2743,   -8.333333e+01,   -4.615385e+01,    5.000000e+00
    2744,   -9.523810e+01,   -4.615385e+01,    5.000000e+00
    2745,   -1.071429e+02,   -4.615385e+01,    5.000000e+00
    2746,   -1.190476e+02,   -4.615385e+01,    5.000000e+00
    2747,   -1.309524e+02,   -4.615385e+01,    5.000000e+00
    2748,   -1.428571e+02,   -4.615385e+01,    5.000000e+00
    2749,   -1.547619e+02,   -4.615385e+01,    5.000000e+00
    2750,   -1.666667e+02,   -4.615385e+01,    5.000000e+00
    2751,   -1.785714e+02,   -4.615385e+01,    5.000000e+00
    2752,   -1.904762e+02,   -4.615385e+01,    5.000000e+00
    2753,   -2.023810e+02,   -4.615385e+01,    5.000000e+00
    2754,   -2.142857e+02,   -4.615385e+01,    5.000000e+00
    2755,   -2.261905e+02,   -4.615385e+01,    5.000000e+00
    2756,   -2.380952e+02,   -4.615385e+01,    5.000000e+00
    2757,   -1.190476e+01,   -3.461538e+01,    5.000000e+00
    2758,   -2.380952e+01,   -3.461538e+01,    5.000000e+00
    2759,   -3.571429e+01,   -3.461538e+01,    5.000000e+00
    2760,   -4.761905e+01,   -3.461538e+01,    5.000000e+00
    2761,   -5.952381e+01,   -3.461538e+01,    5.000000e+00
    2762,   -7.142857e+01,   -3.461538e+01,    5.000000e+00
    2763,   -8.333333e+01,   -3.461538e+01,    5.000000e+00
    2764,   -9.523810e+01,   -3.461538e+01,    5.000000e+00
    2765,   -1.071429e+02,   -3.461538e+01,    5.000000e+00
    2766,   -1.190476e+02,   -3.461538e+01,    5.000000e+00
    2767,   -1.309524e+02,   -3.461538e+01,    5.000000e+00
    2768,   -1.428571e+02,   -3.461538e+01,    5.000000e+00
    2769,   -1.547619e+02,   -3.461538e+01,    5.000000e+00
    2770,   -1.666667e+02,   -3.461538e+01,    5.000000e+00
    2771,   -1.785714e+02,   -3.461538e+01,    5.000000e+00
    2772,   -1.904762e+02,   -3.461538e+01,    5.000000e+00
    2773,   -2.023810e+02,   -3.461538e+01,    5.000000e+00
    2774,   -2.142857e+02,   -3.461538e+01,    5.000000e+00
    2775,   -2.261905e+02,   -3.461538e+01,    5.000000e+00
    2776,   -2.380952e+02,   -3.461538e+01,    5.000000e+00
    2777,   -1.190476e+01,   -2.307692e+01,    5.000000e+00
    2778,   -2.380952e+01,   -2.307692e+01,    5.000000e+00
    2779,   -3.571429e+01,   -2.307692e+01,    5.000000e+00
    2780,   -4.761905e+01,   -2.307692e+01,    5.000000e+00
    2781,   -5.952381e+01,   -2.307692e+01,    5.000000e+00
    2782,   -7.142857e+01,   -2.307692e+01,    5.000000e+00
    2783,   -8.333333e+01,   -2.307692e+01,    5.000000e+00
    2784,   -9.523810e+01,   -2.307692e+01,    5.000000e+00
    2785,   -1.071429e+02,   -2.307692e+01,    5.000000e+00
    2786,   -1.190476e+02,   -2.307692e+01,    5.000000e+00
    2787,   -1.309524e+02,   -2.307692e+01,    5.000000e+00
    2788,   -1.428571e+02,   -2.307692e+01,    5.000000e+00
    2789,   -1.547619e+02,   -2.307692e+01,    5.000000e+00
    2790,   -1.666667e+02,   -2.307692e+01,    5.000000e+00
    2791,   -1.785714e+02,   -2.307692e+01,    5.000000e+00
    2792,   -1.904762e+02,   -2.307692e+01,    5.000000e+00
    2793,   -2.023810e+02,   -2.307692e+01,    5.000000e+00
    2794,   -2.142857e+02,   -2.307692e+01,    5.000000e+00
    2795,   -2.261905e+02,   -2.307692e+01,    5.000000e+00
    2796,   -2.380952e+02,   -2.307692e+01,    5.000000e+00
    2797,   -1.190476e+01,   -1.153846e+01,    5.000000e+00
    2798,   -2.380952e+01,   -1.153846e+01,    5.000000e+00
    2799,   -3.571429e+01,   -1.153846e+01,    5.000000e+00
    2800,   -4.761905e+01,   -1.153846e+01,    5.000000e+00
    2801,   -5.952381e+01,   -1.153846e+01,    5.000000e+00
    2802,   -7.142857e+01,   -1.153846e+01,    5.000000e+00
    2803,   -8.333333e+01,   -1.153846e+01,    5.000000e+00
    2804,   -9.523810e+01,   -1.153846e+01,    5.000000e+00
    2805,   -1.071429e+02,   -1.153846e+01,    5.000000e+00
    2806,   -1.190476e+02,   -1.153846e+01,    5.000000e+00
    2807,   -1.309524e+02,   -1.153846e+01,    5.000000e+00
    2808,   -1.428571e+02,   -1.153846e+01,    5.000000e+00
    2809,   -1.547619e+02,   -1.153846e+01,    5.000000e+00
    2810,   -1.666667e+02,   -1.153846e+01,    5.000000e+00
    2811,   -1.785714e+02,   -1.153846e+01,    5.000000e+00
    2812,   -1.904762e+02,   -1.153846e+01,    5.000000e+00
    2813,   -2.023810e+02,   -1.153846e+01,    5.000000e+00
    2814,   -2.142857e+02,   -1.153846e+01,    5.000000e+00
    2815,   -2.261905e+02,   -1.153846e+01,    5.000000e+00
    2816,   -2.380952e+02,   -1.153846e+01,    5.000000e+00
    2817,    2.000000e+02,    0.000000e+00,    0.000000e+00
    2818,    2.000000e+02,    2.440476e+02,    5.000000e+00
    2819,    2.000000e+02,    2.321429e+02,    5.000000e+00
    2820,    2.000000e+02,    2.202381e+02,    5.000000e+00
    2821,    2.000000e+02,    2.083333e+02,    5.000000e+00
    2822,    2.000000e+02,    1.964286e+02,    5.000000e+00
    2823,    2.000000e+02,    1.845238e+02,    5.000000e+00
    2824,    2.000000e+02,    1.726190e+02,    5.000000e+00
    2825,    2.000000e+02,    1.607143e+02,    5.000000e+00
    2826,    2.000000e+02,    1.488095e+02,    5.000000e+00
    2827,    2.000000e+02,    1.369048e+02,    5.000000e+00
    2828,    2.000000e+02,    1.250000e+02,    5.000000e+00
    2829,    2.000000e+02,    1.130952e+02,    5.000000e+00
    2830,    2.000000e+02,    1.011905e+02,    5.000000e+00
    2831,    2.000000e+02,    8.928571e+01,    5.000000e+00
    2832,    2.000000e+02,    7.738095e+01,    5.000000e+00
    2833,    2.000000e+02,    6.547619e+01,    5.000000e+00
    2834,    2.000000e+02,    5.357143e+01,    5.000000e+00
    2835,    2.000000e+02,    4.166667e+01,    5.000000e+00
    2836,    2.000000e+02,    2.976190e+01,    5.000000e+00
    2837,    2.000000e+02,    1.785714e+01,    5.000000e+00
    2838,    2.000000e+02,    5.952381e+00,    5.000000e+00
    2839,    2.000000e+02,    2.500000e+02,    0.000000e+00
    2840,    2.000000e+02,    5.952381e+00,   -5.000000e+00
    2841,    2.000000e+02,    1.785714e+01,   -5.000000e+00
    2842,    2.000000e+02,    2.976190e+01,   -5.000000e+00
    2843,    2.000000e+02,    4.166667e+01,   -5.000000e+00
    2844,    2.000000e+02,    5.357143e+01,   -5.000000e+00
    2845,    2.000000e+02,    6.547619e+01,   -5.000000e+00
    2846,    2.000000e+02,    7.738095e+01,   -5.000000e+00
    2847,    2.000000e+02,    8.928571e+01,   -5.000000e+00
    2848,    2.000000e+02,    1.011905e+02,   -5.000000e+00
    2849,    2.000000e+02,    1.130952e+02,   -5.000000e+00
    2850,    2.000000e+02,    1.250000e+02,   -5.000000e+00
    2851,    2.000000e+02,    1.369048e+02,   -5.000000e+00
    2852,    2.000000e+02,    1.488095e+02,   -5.000000e+00
    2853,    2.000000e+02,    1.607143e+02,   -5.000000e+00
    2854,    2.000000e+02,    1.726190e+02,   -5.000000e+00
    2855,    2.000000e+02,    1.845238e+02,   -5.000000e+00
    2856,    2.000000e+02,    1.964286e+02,   -5.000000e+00
    2857,    2.000000e+02,    2.083333e+02,   -5.000000e+00
    2858,    2.000000e+02,    2.202381e+02,   -5.000000e+00
    2859,    2.000000e+02,    2.321429e+02,   -5.000000e+00
    2860,    2.000000e+02,    2.440476e+02,   -5.000000e+00
    2861,    2.000000e+02,    1.190476e+01,    0.000000e+00
    2862,    2.000000e+02,    2.380952e+01,    0.000000e+00
    2863,    2.000000e+02,    3.571429e+01,    0.000000e+00
    2864,    2.000000e+02,    4.761905e+01,    0.000000e+00
    2865,    2.000000e+02,    5.952381e+01,    0.000000e+00
    2866,    2.000000e+02,    7.142857e+01,    0.000000e+00
    2867,    2.000000e+02,    8.333333e+01,    0.000000e+00
    2868,    2.000000e+02,    9.523810e+01,    0.000000e+00
    2869,    2.000000e+02,    1.071429e+02,    0.000000e+00
    2870,    2.000000e+02,    1.190476e+02,    0.000000e+00
    2871,    2.000000e+02,    1.309524e+02,    0.000000e+00
    2872,    2.000000e+02,    1.428571e+02,    0.000000e+00
    2873,    2.000000e+02,    1.547619e+02,    0.000000e+00
    2874,    2.000000e+02,    1.666667e+02,    0.000000e+00
    2875,    2.000000e+02,    1.785714e+02,    0.000000e+00
    2876,    2.000000e+02,    1.904762e+02,    0.000000e+00
    2877,    2.000000e+02,    2.023810e+02,    0.000000e+00
    2878,    2.000000e+02,    2.142857e+02,    0.000000e+00
    2879,    2.000000e+02,    2.261905e+02,    0.000000e+00
    2880,    2.000000e+02,    2.380952e+02,    0.000000e+00
    2881,    2.437500e+02,    2.500000e+02,    5.000000e+00
    2882,    2.312500e+02,    2.500000e+02,    5.000000e+00
    2883,    2.187500e+02,    2.500000e+02,    5.000000e+00
    2884,    2.062500e+02,    2.500000e+02,    5.000000e+00
    2885,    2.500000e+02,    2.500000e+02,    0.000000e+00
    2886,    2.062500e+02,    2.500000e+02,   -5.000000e+00
    2887,    2.187500e+02,    2.500000e+02,   -5.000000e+00
    2888,    2.312500e+02,    2.500000e+02,   -5.000000e+00
    2889,    2.437500e+02,    2.500000e+02,   -5.000000e+00
    2890,    2.125000e+02,    2.500000e+02,    0.000000e+00
    2891,    2.250000e+02,    2.500000e+02,    0.000000e+00
    2892,    2.375000e+02,    2.500000e+02,    0.000000e+00
    2893,    2.437500e+02,    0.000000e+00,    5.000000e+00
    2894,    2.312500e+02,    0.000000e+00,    5.000000e+00
    2895,    2.187500e+02,    0.000000e+00,    5.000000e+00
    2896,    2.062500e+02,    0.000000e+00,    5.000000e+00
    2897,    2.500000e+02,    5.952381e+00,    5.000000e+00
    2898,    2.500000e+02,    1.785714e+01,    5.000000e+00
    2899,    2.500000e+02,    2.976190e+01,    5.000000e+00
    2900,    2.500000e+02,    4.166667e+01,    5.000000e+00
    2901,    2.500000e+02,    5.357143e+01,    5.000000e+00
    2902,    2.500000e+02,    6.547619e+01,    5.000000e+00
    2903,    2.500000e+02,    7.738095e+01,    5.000000e+00
    2904,    2.500000e+02,    8.928571e+01,    5.000000e+00
    2905,    2.500000e+02,    1.011905e+02,    5.000000e+00
    2906,    2.500000e+02,    1.130952e+02,    5.000000e+00
    2907,    2.500000e+02,    1.250000e+02,    5.000000e+00
    2908,    2.500000e+02,    1.369048e+02,    5.000000e+00
    2909,    2.500000e+02,    1.488095e+02,    5.000000e+00
    2910,    2.500000e+02,    1.607143e+02,    5.000000e+00
    2911,    2.500000e+02,    1.726190e+02,    5.000000e+00
    2912,    2.500000e+02,    1.845238e+02,    5.000000e+00
    2913,    2.500000e+02,    1.964286e+02,    5.000000e+00
    2914,    2.500000e+02,    2.083333e+02,    5.000000e+00
    2915,    2.500000e+02,    2.202381e+02,    5.000000e+00
    2916,    2.500000e+02,    2.321429e+02,    5.000000e+00
    2917,    2.500000e+02,    2.440476e+02,    5.000000e+00
    2918,    2.375000e+02,    2.440476e+02,    5.000000e+00
    2919,    2.437500e+02,    2.380952e+02,    5.000000e+00
    2920,    2.375000e+02,    2.321429e+02,    5.000000e+00
    2921,    2.437500e+02,    2.261905e+02,    5.000000e+00
    2922,    2.375000e+02,    2.202381e+02,    5.000000e+00
    2923,    2.437500e+02,    2.142857e+02,    5.000000e+00
    2924,    2.375000e+02,    2.083333e+02,    5.000000e+00
    2925,    2.437500e+02,    2.023810e+02,    5.000000e+00
    2926,    2.375000e+02,    1.964286e+02,    5.000000e+00
    2927,    2.437500e+02,    1.904762e+02,    5.000000e+00
    2928,    2.375000e+02,    1.845238e+02,    5.000000e+00
    2929,    2.437500e+02,    1.785714e+02,    5.000000e+00
    2930,    2.375000e+02,    1.726190e+02,    5.000000e+00
    2931,    2.437500e+02,    1.666667e+02,    5.000000e+00
    2932,    2.375000e+02,    1.607143e+02,    5.000000e+00
    2933,    2.437500e+02,    1.547619e+02,    5.000000e+00
    2934,    2.375000e+02,    1.488095e+02,    5.000000e+00
    2935,    2.437500e+02,    1.428571e+02,    5.000000e+00
    2936,    2.375000e+02,    1.369048e+02,    5.000000e+00
    2937,    2.437500e+02,    1.309524e+02,    5.000000e+00
    2938,    2.375000e+02,    1.250000e+02,    5.000000e+00
    2939,    2.437500e+02,    1.190476e+02,    5.000000e+00
    2940,    2.375000e+02,    1.130952e+02,    5.000000e+00
    2941,    2.437500e+02,    1.071429e+02,    5.000000e+00
    2942,    2.375000e+02,    1.011905e+02,    5.000000e+00
    2943,    2.437500e+02,    9.523810e+01,    5.000000e+00
    2944,    2.375000e+02,    8.928571e+01,    5.000000e+00
    2945,    2.437500e+02,    8.333333e+01,    5.000000e+00
    2946,    2.375000e+02,    7.738095e+01,    5.000000e+00
    2947,    2.437500e+02,    7.142857e+01,    5.000000e+00
    2948,    2.375000e+02,    6.547619e+01,    5.000000e+00
    2949,    2.437500e+02,    5.952381e+01,    5.000000e+00
    2950,    2.375000e+02,    5.357143e+01,    5.000000e+00
    2951,    2.437500e+02,    4.761905e+01,    5.000000e+00
    2952,    2.375000e+02,    4.166667e+01,    5.000000e+00
    2953,    2.437500e+02,    3.571429e+01,    5.000000e+00
    2954,    2.375000e+02,    2.976190e+01,    5.000000e+00
    2955,    2.437500e+02,    2.380952e+01,    5.000000e+00
    2956,    2.375000e+02,    1.785714e+01,    5.000000e+00
    2957,    2.437500e+02,    1.190476e+01,    5.000000e+00
    2958,    2.375000e+02,    5.952381e+00,    5.000000e+00
    2959,    2.250000e+02,    2.440476e+02,    5.000000e+00
    2960,    2.312500e+02,    2.380952e+02,    5.000000e+00
    2961,    2.250000e+02,    2.321429e+02,    5.000000e+00
    2962,    2.312500e+02,    2.261905e+02,    5.000000e+00
    2963,    2.250000e+02,    2.202381e+02,    5.000000e+00
    2964,    2.312500e+02,    2.142857e+02,    5.000000e+00
    2965,    2.250000e+02,    2.083333e+02,    5.000000e+00
    2966,    2.312500e+02,    2.023810e+02,    5.000000e+00
    2967,    2.250000e+02,    1.964286e+02,    5.000000e+00
    2968,    2.312500e+02,    1.904762e+02,    5.000000e+00
    2969,    2.250000e+02,    1.845238e+02,    5.000000e+00
    2970,    2.312500e+02,    1.785714e+02,    5.000000e+00
    2971,    2.250000e+02,    1.726190e+02,    5.000000e+00
    2972,    2.312500e+02,    1.666667e+02,    5.000000e+00
    2973,    2.250000e+02,    1.607143e+02,    5.000000e+00
    2974,    2.312500e+02,    1.547619e+02,    5.000000e+00
    2975,    2.250000e+02,    1.488095e+02,    5.000000e+00
    2976,    2.312500e+02,    1.428571e+02,    5.000000e+00
    2977,    2.250000e+02,    1.369048e+02,    5.000000e+00
    2978,    2.312500e+02,    1.309524e+02,    5.000000e+00
    2979,    2.250000e+02,    1.250000e+02,    5.000000e+00
    2980,    2.312500e+02,    1.190476e+02,    5.000000e+00
    2981,    2.250000e+02,    1.130952e+02,    5.000000e+00
    2982,    2.312500e+02,    1.071429e+02,    5.000000e+00
    2983,    2.250000e+02,    1.011905e+02,    5.000000e+00
    2984,    2.312500e+02,    9.523810e+01,    5.000000e+00
    2985,    2.250000e+02,    8.928571e+01,    5.000000e+00
    2986,    2.312500e+02,    8.333333e+01,    5.000000e+00
    2987,    2.250000e+02,    7.738095e+01,    5.000000e+00
    2988,    2.312500e+02,    7.142857e+01,    5.000000e+00
    2989,    2.250000e+02,    6.547619e+01,    5.000000e+00
    2990,    2.312500e+02,    5.952381e+01,    5.000000e+00
    2991,    2.250000e+02,    5.357143e+01,    5.000000e+00
    2992,    2.312500e+02,    4.761905e+01,    5.000000e+00
    2993,    2.250000e+02,    4.166667e+01,    5.000000e+00
    2994,    2.312500e+02,    3.571429e+01,    5.000000e+00
    2995,    2.250000e+02,    2.976190e+01,    5.000000e+00
    2996,    2.312500e+02,    2.380952e+01,    5.000000e+00
    2997,    2.250000e+02,    1.785714e+01,    5.000000e+00
    2998,    2.312500e+02,    1.190476e+01,    5.000000e+00
    2999,    2.250000e+02,    5.952381e+00,    5.000000e+00
    3000,    2.125000e+02,    2.440476e+02,    5.000000e+00
    3001,    2.187500e+02,    2.380952e+02,    5.000000e+00
    3002,    2.125000e+02,    2.321429e+02,    5.000000e+00
    3003,    2.187500e+02,    2.261905e+02,    5.000000e+00
    3004,    2.125000e+02,    2.202381e+02,    5.000000e+00
    3005,    2.187500e+02,    2.142857e+02,    5.000000e+00
    3006,    2.125000e+02,    2.083333e+02,    5.000000e+00
    3007,    2.187500e+02,    2.023810e+02,    5.000000e+00
    3008,    2.125000e+02,    1.964286e+02,    5.000000e+00
    3009,    2.187500e+02,    1.904762e+02,    5.000000e+00
    3010,    2.125000e+02,    1.845238e+02,    5.000000e+00
    3011,    2.187500e+02,    1.785714e+02,    5.000000e+00
    3012,    2.125000e+02,    1.726190e+02,    5.000000e+00
    3013,    2.187500e+02,    1.666667e+02,    5.000000e+00
    3014,    2.125000e+02,    1.607143e+02,    5.000000e+00
    3015,    2.187500e+02,    1.547619e+02,    5.000000e+00
    3016,    2.125000e+02,    1.488095e+02,    5.000000e+00
    3017,    2.187500e+02,    1.428571e+02,    5.000000e+00
    3018,    2.125000e+02,    1.369048e+02,    5.000000e+00
    3019,    2.187500e+02,    1.309524e+02,    5.000000e+00
    3020,    2.125000e+02,    1.250000e+02,    5.000000e+00
    3021,    2.187500e+02,    1.190476e+02,    5.000000e+00
    3022,    2.125000e+02,    1.130952e+02,    5.000000e+00
    3023,    2.187500e+02,    1.071429e+02,    5.000000e+00
    3024,    2.125000e+02,    1.011905e+02,    5.000000e+00
    3025,    2.187500e+02,    9.523810e+01,    5.000000e+00
    3026,    2.125000e+02,    8.928571e+01,    5.000000e+00
    3027,    2.187500e+02,    8.333333e+01,    5.000000e+00
    3028,    2.125000e+02,    7.738095e+01,    5.000000e+00
    3029,    2.187500e+02,    7.142857e+01,    5.000000e+00
    3030,    2.125000e+02,    6.547619e+01,    5.000000e+00
    3031,    2.187500e+02,    5.952381e+01,    5.000000e+00
    3032,    2.125000e+02,    5.357143e+01,    5.000000e+00
    3033,    2.187500e+02,    4.761905e+01,    5.000000e+00
    3034,    2.125000e+02,    4.166667e+01,    5.000000e+00
    3035,    2.187500e+02,    3.571429e+01,    5.000000e+00
    3036,    2.125000e+02,    2.976190e+01,    5.000000e+00
    3037,    2.187500e+02,    2.380952e+01,    5.000000e+00
    3038,    2.125000e+02,    1.785714e+01,    5.000000e+00
    3039,    2.187500e+02,    1.190476e+01,    5.000000e+00
    3040,    2.125000e+02,    5.952381e+00,    5.000000e+00
    3041,    2.062500e+02,    2.380952e+02,    5.000000e+00
    3042,    2.062500e+02,    2.261905e+02,    5.000000e+00
    3043,    2.062500e+02,    2.142857e+02,    5.000000e+00
    3044,    2.062500e+02,    2.023810e+02,    5.000000e+00
    3045,    2.062500e+02,    1.904762e+02,    5.000000e+00
    3046,    2.062500e+02,    1.785714e+02,    5.000000e+00
    3047,    2.062500e+02,    1.666667e+02,    5.000000e+00
    3048,    2.062500e+02,    1.547619e+02,    5.000000e+00
    3049,    2.062500e+02,    1.428571e+02,    5.000000e+00
    3050,    2.062500e+02,    1.309524e+02,    5.000000e+00
    3051,    2.062500e+02,    1.190476e+02,    5.000000e+00
    3052,    2.062500e+02,    1.071429e+02,    5.000000e+00
    3053,    2.062500e+02,    9.523810e+01,    5.000000e+00
    3054,    2.062500e+02,    8.333333e+01,    5.000000e+00
    3055,    2.062500e+02,    7.142857e+01,    5.000000e+00
    3056,    2.062500e+02,    5.952381e+01,    5.000000e+00
    3057,    2.062500e+02,    4.761905e+01,    5.000000e+00
    3058,    2.062500e+02,    3.571429e+01,    5.000000e+00
    3059,    2.062500e+02,    2.380952e+01,    5.000000e+00
    3060,    2.062500e+02,    1.190476e+01,    5.000000e+00
    3061,    2.062500e+02,    0.000000e+00,   -5.000000e+00
    3062,    2.187500e+02,    0.000000e+00,   -5.000000e+00
    3063,    2.312500e+02,    0.000000e+00,   -5.000000e+00
    3064,    2.437500e+02,    0.000000e+00,   -5.000000e+00
    3065,    2.500000e+02,    0.000000e+00,    0.000000e+00
    3066,    2.125000e+02,    0.000000e+00,    0.000000e+00
    3067,    2.250000e+02,    0.000000e+00,    0.000000e+00
    3068,    2.375000e+02,    0.000000e+00,    0.000000e+00
    3069,    2.500000e+02,    2.440476e+02,   -5.000000e+00
    3070,    2.500000e+02,    2.321429e+02,   -5.000000e+00
    3071,    2.500000e+02,    2.202381e+02,   -5.000000e+00
    3072,    2.500000e+02,    2.083333e+02,   -5.000000e+00
    3073,    2.500000e+02,    1.964286e+02,   -5.000000e+00
    3074,    2.500000e+02,    1.845238e+02,   -5.000000e+00
    3075,    2.500000e+02,    1.726190e+02,   -5.000000e+00
    3076,    2.500000e+02,    1.607143e+02,   -5.000000e+00
    3077,    2.500000e+02,    1.488095e+02,   -5.000000e+00
    3078,    2.500000e+02,    1.369048e+02,   -5.000000e+00
    3079,    2.500000e+02,    1.250000e+02,   -5.000000e+00
    3080,    2.500000e+02,    1.130952e+02,   -5.000000e+00
    3081,    2.500000e+02,    1.011905e+02,   -5.000000e+00
    3082,    2.500000e+02,    8.928571e+01,   -5.000000e+00
    3083,    2.500000e+02,    7.738095e+01,   -5.000000e+00
    3084,    2.500000e+02,    6.547619e+01,   -5.000000e+00
    3085,    2.500000e+02,    5.357143e+01,   -5.000000e+00
    3086,    2.500000e+02,    4.166667e+01,   -5.000000e+00
    3087,    2.500000e+02,    2.976190e+01,   -5.000000e+00
    3088,    2.500000e+02,    1.785714e+01,   -5.000000e+00
    3089,    2.500000e+02,    5.952381e+00,   -5.000000e+00
    3090,    2.062500e+02,    1.190476e+01,   -5.000000e+00
    3091,    2.125000e+02,    5.952381e+00,   -5.000000e+00
    3092,    2.062500e+02,    2.380952e+01,   -5.000000e+00
    3093,    2.125000e+02,    1.785714e+01,   -5.000000e+00
    3094,    2.062500e+02,    3.571429e+01,   -5.000000e+00
    3095,    2.125000e+02,    2.976190e+01,   -5.000000e+00
    3096,    2.062500e+02,    4.761905e+01,   -5.000000e+00
    3097,    2.125000e+02,    4.166667e+01,   -5.000000e+00
    3098,    2.062500e+02,    5.952381e+01,   -5.000000e+00
    3099,    2.125000e+02,    5.357143e+01,   -5.000000e+00
    3100,    2.062500e+02,    7.142857e+01,   -5.000000e+00
    3101,    2.125000e+02,    6.547619e+01,   -5.000000e+00
    3102,    2.062500e+02,    8.333333e+01,   -5.000000e+00
    3103,    2.125000e+02,    7.738095e+01,   -5.000000e+00
    3104,    2.062500e+02,    9.523810e+01,   -5.000000e+00
    3105,    2.125000e+02,    8.928571e+01,   -5.000000e+00
    3106,    2.062500e+02,    1.071429e+02,   -5.000000e+00
    3107,    2.125000e+02,    1.011905e+02,   -5.000000e+00
    3108,    2.062500e+02,    1.190476e+02,   -5.000000e+00
    3109,    2.125000e+02,    1.130952e+02,   -5.000000e+00
    3110,    2.062500e+02,    1.309524e+02,   -5.000000e+00
    3111,    2.125000e+02,    1.250000e+02,   -5.000000e+00
    3112,    2.062500e+02,    1.428571e+02,   -5.000000e+00
    3113,    2.125000e+02,    1.369048e+02,   -5.000000e+00
    3114,    2.062500e+02,    1.547619e+02,   -5.000000e+00
    3115,    2.125000e+02,    1.488095e+02,   -5.000000e+00
    3116,    2.062500e+02,    1.666667e+02,   -5.000000e+00
    3117,    2.125000e+02,    1.607143e+02,   -5.000000e+00
    3118,    2.062500e+02,    1.785714e+02,   -5.000000e+00
    3119,    2.125000e+02,    1.726190e+02,   -5.000000e+00
    3120,    2.062500e+02,    1.904762e+02,   -5.000000e+00
    3121,    2.125000e+02,    1.845238e+02,   -5.000000e+00
    3122,    2.062500e+02,    2.023810e+02,   -5.000000e+00
    3123,    2.125000e+02,    1.964286e+02,   -5.000000e+00
    3124,    2.062500e+02,    2.142857e+02,   -5.000000e+00
    3125,    2.125000e+02,    2.083333e+02,   -5.000000e+00
    3126,    2.062500e+02,    2.261905e+02,   -5.000000e+00
    3127,    2.125000e+02,    2.202381e+02,   -5.000000e+00
    3128,    2.062500e+02,    2.380952e+02,   -5.000000e+00
    3129,    2.125000e+02,    2.321429e+02,   -5.000000e+00
    3130,    2.125000e+02,    2.440476e+02,   -5.000000e+00
    3131,    2.187500e+02,    1.190476e+01,   -5.000000e+00
    3132,    2.250000e+02,    5.952381e+00,   -5.000000e+00
    3133,    2.187500e+02,    2.380952e+01,   -5.000000e+00
    3134,    2.250000e+02,    1.785714e+01,   -5.000000e+00
    3135,    2.187500e+02,    3.571429e+01,   -5.000000e+00
    3136,    2.250000e+02,    2.976190e+01,   -5.000000e+00
    3137,    2.187500e+02,    4.761905e+01,   -5.000000e+00
    3138,    2.250000e+02,    4.166667e+01,   -5.000000e+00
    3139,    2.187500e+02,    5.952381e+01,   -5.000000e+00
    3140,    2.250000e+02,    5.357143e+01,   -5.000000e+00
    3141,    2.187500e+02,    7.142857e+01,   -5.000000e+00
    3142,    2.250000e+02,    6.547619e+01,   -5.000000e+00
    3143,    2.187500e+02,    8.333333e+01,   -5.000000e+00
    3144,    2.250000e+02,    7.738095e+01,   -5.000000e+00
    3145,    2.187500e+02,    9.523810e+01,   -5.000000e+00
    3146,    2.250000e+02,    8.928571e+01,   -5.000000e+00
    3147,    2.187500e+02,    1.071429e+02,   -5.000000e+00
    3148,    2.250000e+02,    1.011905e+02,   -5.000000e+00
    3149,    2.187500e+02,    1.190476e+02,   -5.000000e+00
    3150,    2.250000e+02,    1.130952e+02,   -5.000000e+00
    3151,    2.187500e+02,    1.309524e+02,   -5.000000e+00
    3152,    2.250000e+02,    1.250000e+02,   -5.000000e+00
    3153,    2.187500e+02,    1.428571e+02,   -5.000000e+00
    3154,    2.250000e+02,    1.369048e+02,   -5.000000e+00
    3155,    2.187500e+02,    1.547619e+02,   -5.000000e+00
    3156,    2.250000e+02,    1.488095e+02,   -5.000000e+00
    3157,    2.187500e+02,    1.666667e+02,   -5.000000e+00
    3158,    2.250000e+02,    1.607143e+02,   -5.000000e+00
    3159,    2.187500e+02,    1.785714e+02,   -5.000000e+00
    3160,    2.250000e+02,    1.726190e+02,   -5.000000e+00
    3161,    2.187500e+02,    1.904762e+02,   -5.000000e+00
    3162,    2.250000e+02,    1.845238e+02,   -5.000000e+00
    3163,    2.187500e+02,    2.023810e+02,   -5.000000e+00
    3164,    2.250000e+02,    1.964286e+02,   -5.000000e+00
    3165,    2.187500e+02,    2.142857e+02,   -5.000000e+00
    3166,    2.250000e+02,    2.083333e+02,   -5.000000e+00
    3167,    2.187500e+02,    2.261905e+02,   -5.000000e+00
    3168,    2.250000e+02,    2.202381e+02,   -5.000000e+00
    3169,    2.187500e+02,    2.380952e+02,   -5.000000e+00
    3170,    2.250000e+02,    2.321429e+02,   -5.000000e+00
    3171,    2.250000e+02,    2.440476e+02,   -5.000000e+00
    3172,    2.312500e+02,    1.190476e+01,   -5.000000e+00
    3173,    2.375000e+02,    5.952381e+00,   -5.000000e+00
    3174,    2.312500e+02,    2.380952e+01,   -5.000000e+00
    3175,    2.375000e+02,    1.785714e+01,   -5.000000e+00
    3176,    2.312500e+02,    3.571429e+01,   -5.000000e+00
    3177,    2.375000e+02,    2.976190e+01,   -5.000000e+00
    3178,    2.312500e+02,    4.761905e+01,   -5.000000e+00
    3179,    2.375000e+02,    4.166667e+01,   -5.000000e+00
    3180,    2.312500e+02,    5.952381e+01,   -5.000000e+00
    3181,    2.375000e+02,    5.357143e+01,   -5.000000e+00
    3182,    2.312500e+02,    7.142857e+01,   -5.000000e+00
    3183,    2.375000e+02,    6.547619e+01,   -5.000000e+00
    3184,    2.312500e+02,    8.333333e+01,   -5.000000e+00
    3185,    2.375000e+02,    7.738095e+01,   -5.000000e+00
    3186,    2.312500e+02,    9.523810e+01,   -5.000000e+00
    3187,    2.375000e+02,    8.928571e+01,   -5.000000e+00
    3188,    2.312500e+02,    1.071429e+02,   -5.000000e+00
    3189,    2.375000e+02,    1.011905e+02,   -5.000000e+00
    3190,    2.312500e+02,    1.190476e+02,   -5.000000e+00
    3191,    2.375000e+02,    1.130952e+02,   -5.000000e+00
    3192,    2.312500e+02,    1.309524e+02,   -5.000000e+00
    3193,    2.375000e+02,    1.250000e+02,   -5.000000e+00
    3194,    2.312500e+02,    1.428571e+02,   -5.000000e+00
    3195,    2.375000e+02,    1.369048e+02,   -5.000000e+00
    3196,    2.312500e+02,    1.547619e+02,   -5.000000e+00
    3197,    2.375000e+02,    1.488095e+02,   -5.000000e+00
    3198,    2.312500e+02,    1.666667e+02,   -5.000000e+00
    3199,    2.375000e+02,    1.607143e+02,   -5.000000e+00
    3200,    2.312500e+02,    1.785714e+02,   -5.000000e+00
    3201,    2.375000e+02,    1.726190e+02,   -5.000000e+00
    3202,    2.312500e+02,    1.904762e+02,   -5.000000e+00
    3203,    2.375000e+02,    1.845238e+02,   -5.000000e+00
    3204,    2.312500e+02,    2.023810e+02,   -5.000000e+00
    3205,    2.375000e+02,    1.964286e+02,   -5.000000e+00
    3206,    2.312500e+02,    2.142857e+02,   -5.000000e+00
    3207,    2.375000e+02,    2.083333e+02,   -5.000000e+00
    3208,    2.312500e+02,    2.261905e+02,   -5.000000e+00
    3209,    2.375000e+02,    2.202381e+02,   -5.000000e+00
    3210,    2.312500e+02,    2.380952e+02,   -5.000000e+00
    3211,    2.375000e+02,    2.321429e+02,   -5.000000e+00
    3212,    2.375000e+02,    2.440476e+02,   -5.000000e+00
    3213,    2.437500e+02,    1.190476e+01,   -5.000000e+00
    3214,    2.437500e+02,    2.380952e+01,   -5.000000e+00
    3215,    2.437500e+02,    3.571429e+01,   -5.000000e+00
    3216,    2.437500e+02,    4.761905e+01,   -5.000000e+00
    3217,    2.437500e+02,    5.952381e+01,   -5.000000e+00
    3218,    2.437500e+02,    7.142857e+01,   -5.000000e+00
    3219,    2.437500e+02,    8.333333e+01,   -5.000000e+00
    3220,    2.437500e+02,    9.523810e+01,   -5.000000e+00
    3221,    2.437500e+02,    1.071429e+02,   -5.000000e+00
    3222,    2.437500e+02,    1.190476e+02,   -5.000000e+00
    3223,    2.437500e+02,    1.309524e+02,   -5.000000e+00
    3224,    2.437500e+02,    1.428571e+02,   -5.000000e+00
    3225,    2.437500e+02,    1.547619e+02,   -5.000000e+00
    3226,    2.437500e+02,    1.666667e+02,   -5.000000e+00
    3227,    2.437500e+02,    1.785714e+02,   -5.000000e+00
    3228,    2.437500e+02,    1.904762e+02,   -5.000000e+00
    3229,    2.437500e+02,    2.023810e+02,   -5.000000e+00
    3230,    2.437500e+02,    2.142857e+02,   -5.000000e+00
    3231,    2.437500e+02,    2.261905e+02,   -5.000000e+00
    3232,    2.437500e+02,    2.380952e+02,   -5.000000e+00
    3233,    2.500000e+02,    1.190476e+01,    0.000000e+00
    3234,    2.500000e+02,    2.380952e+01,    0.000000e+00
    3235,    2.500000e+02,    3.571429e+01,    0.000000e+00
    3236,    2.500000e+02,    4.761905e+01,    0.000000e+00
    3237,    2.500000e+02,    5.952381e+01,    0.000000e+00
    3238,    2.500000e+02,    7.142857e+01,    0.000000e+00
    3239,    2.500000e+02,    8.333333e+01,    0.000000e+00
    3240,    2.500000e+02,    9.523810e+01,    0.000000e+00
    3241,    2.500000e+02,    1.071429e+02,    0.000000e+00
    3242,    2.500000e+02,    1.190476e+02,    0.000000e+00
    3243,    2.500000e+02,    1.309524e+02,    0.000000e+00
    3244,    2.500000e+02,    1.428571e+02,    0.000000e+00
    3245,    2.500000e+02,    1.547619e+02,    0.000000e+00
    3246,    2.500000e+02,    1.666667e+02,    0.000000e+00
    3247,    2.500000e+02,    1.785714e+02,    0.000000e+00
    3248,    2.500000e+02,    1.904762e+02,    0.000000e+00
    3249,    2.500000e+02,    2.023810e+02,    0.000000e+00
    3250,    2.500000e+02,    2.142857e+02,    0.000000e+00
    3251,    2.500000e+02,    2.261905e+02,    0.000000e+00
    3252,    2.500000e+02,    2.380952e+02,    0.000000e+00
    3253,    2.375000e+02,    2.380952e+02,    0.000000e+00
    3254,    2.375000e+02,    2.261905e+02,    0.000000e+00
    3255,    2.375000e+02,    2.142857e+02,    0.000000e+00
    3256,    2.375000e+02,    2.023810e+02,    0.000000e+00
    3257,    2.375000e+02,    1.904762e+02,    0.000000e+00
    3258,    2.375000e+02,    1.785714e+02,    0.000000e+00
    3259,    2.375000e+02,    1.666667e+02,    0.000000e+00
    3260,    2.375000e+02,    1.547619e+02,    0.000000e+00
    3261,    2.375000e+02,    1.428571e+02,    0.000000e+00
    3262,    2.375000e+02,    1.309524e+02,    0.000000e+00
    3263,    2.375000e+02,    1.190476e+02,    0.000000e+00
    3264,    2.375000e+02,    1.071429e+02,    0.000000e+00
    3265,    2.375000e+02,    9.523810e+01,    0.000000e+00
    3266,    2.375000e+02,    8.333333e+01,    0.000000e+00
    3267,    2.375000e+02,    7.142857e+01,    0.000000e+00
    3268,    2.375000e+02,    5.952381e+01,    0.000000e+00
    3269,    2.375000e+02,    4.761905e+01,    0.000000e+00
    3270,    2.375000e+02,    3.571429e+01,    0.000000e+00
    3271,    2.375000e+02,    2.380952e+01,    0.000000e+00
    3272,    2.375000e+02,    1.190476e+01,    0.000000e+00
    3273,    2.250000e+02,    2.380952e+02,    0.000000e+00
    3274,    2.250000e+02,    2.261905e+02,    0.000000e+00
    3275,    2.250000e+02,    2.142857e+02,    0.000000e+00
    3276,    2.250000e+02,    2.023810e+02,    0.000000e+00
    3277,    2.250000e+02,    1.904762e+02,    0.000000e+00
    3278,    2.250000e+02,    1.785714e+02,    0.000000e+00
    3279,    2.250000e+02,    1.666667e+02,    0.000000e+00
    3280,    2.250000e+02,    1.547619e+02,    0.000000e+00
    3281,    2.250000e+02,    1.428571e+02,    0.000000e+00
    3282,    2.250000e+02,    1.309524e+02,    0.000000e+00
    3283,    2.250000e+02,    1.190476e+02,    0.000000e+00
    3284,    2.250000e+02,    1.071429e+02,    0.000000e+00
    3285,    2.250000e+02,    9.523810e+01,    0.000000e+00
    3286,    2.250000e+02,    8.333333e+01,    0.000000e+00
    3287,    2.250000e+02,    7.142857e+01,    0.000000e+00
    3288,    2.250000e+02,    5.952381e+01,    0.000000e+00
    3289,    2.250000e+02,    4.761905e+01,    0.000000e+00
    3290,    2.250000e+02,    3.571429e+01,    0.000000e+00
    3291,    2.250000e+02,    2.380952e+01,    0.000000e+00
    3292,    2.250000e+02,    1.190476e+01,    0.000000e+00
    3293,    2.125000e+02,    2.380952e+02,    0.000000e+00
    3294,    2.125000e+02,    2.261905e+02,    0.000000e+00
    3295,    2.125000e+02,    2.142857e+02,    0.000000e+00
    3296,    2.125000e+02,    2.023810e+02,    0.000000e+00
    3297,    2.125000e+02,    1.904762e+02,    0.000000e+00
    3298,    2.125000e+02,    1.785714e+02,    0.000000e+00
    3299,    2.125000e+02,    1.666667e+02,    0.000000e+00
    3300,    2.125000e+02,    1.547619e+02,    0.000000e+00
    3301,    2.125000e+02,    1.428571e+02,    0.000000e+00
    3302,    2.125000e+02,    1.309524e+02,    0.000000e+00
    3303,    2.125000e+02,    1.190476e+02,    0.000000e+00
    3304,    2.125000e+02,    1.071429e+02,    0.000000e+00
    3305,    2.125000e+02,    9.523810e+01,    0.000000e+00
    3306,    2.125000e+02,    8.333333e+01,    0.000000e+00
    3307,    2.125000e+02,    7.142857e+01,    0.000000e+00
    3308,    2.125000e+02,    5.952381e+01,    0.000000e+00
    3309,    2.125000e+02,    4.761905e+01,    0.000000e+00
    3310,    2.125000e+02,    3.571429e+01,    0.000000e+00
    3311,    2.125000e+02,    2.380952e+01,    0.000000e+00
    3312,    2.125000e+02,    1.190476e+01,    0.000000e+00
    3313,    0.000000e+00,    0.000000e+00,    0.000000e+00
    3314,   -2.440476e+02,    0.000000e+00,   -5.000000e+00
    3315,   -2.321429e+02,    0.000000e+00,   -5.000000e+00
    3316,   -2.202381e+02,    0.000000e+00,   -5.000000e+00
    3317,   -2.083333e+02,    0.000000e+00,   -5.000000e+00
    3318,   -1.964286e+02,    0.000000e+00,   -5.000000e+00
    3319,   -1.845238e+02,    0.000000e+00,   -5.000000e+00
    3320,   -1.726190e+02,    0.000000e+00,   -5.000000e+00
    3321,   -1.607143e+02,    0.000000e+00,   -5.000000e+00
    3322,   -1.488095e+02,    0.000000e+00,   -5.000000e+00
    3323,   -1.369048e+02,    0.000000e+00,   -5.000000e+00
    3324,   -1.250000e+02,    0.000000e+00,   -5.000000e+00
    3325,   -1.130952e+02,    0.000000e+00,   -5.000000e+00
    3326,   -1.011905e+02,    0.000000e+00,   -5.000000e+00
    3327,   -8.928571e+01,    0.000000e+00,   -5.000000e+00
    3328,   -7.738095e+01,    0.000000e+00,   -5.000000e+00
    3329,   -6.547619e+01,    0.000000e+00,   -5.000000e+00
    3330,   -5.357143e+01,    0.000000e+00,   -5.000000e+00
    3331,   -4.166667e+01,    0.000000e+00,   -5.000000e+00
    3332,   -2.976190e+01,    0.000000e+00,   -5.000000e+00
    3333,   -1.785714e+01,    0.000000e+00,   -5.000000e+00
    3334,   -5.952381e+00,    0.000000e+00,   -5.000000e+00
    3335,   -2.500000e+02,    0.000000e+00,    0.000000e+00
    3336,   -5.952381e+00,    0.000000e+00,    5.000000e+00
    3337,   -1.785714e+01,    0.000000e+00,    5.000000e+00
    3338,   -2.976190e+01,    0.000000e+00,    5.000000e+00
    3339,   -4.166667e+01,    0.000000e+00,    5.000000e+00
    3340,   -5.357143e+01,    0.000000e+00,    5.000000e+00
    3341,   -6.547619e+01,    0.000000e+00,    5.000000e+00
    3342,   -7.738095e+01,    0.000000e+00,    5.000000e+00
    3343,   -8.928571e+01,    0.000000e+00,    5.000000e+00
    3344,   -1.011905e+02,    0.000000e+00,    5.000000e+00
    3345,   -1.130952e+02,    0.000000e+00,    5.000000e+00
    3346,   -1.250000e+02,    0.000000e+00,    5.000000e+00
    3347,   -1.369048e+02,    0.000000e+00,    5.000000e+00
    3348,   -1.488095e+02,    0.000000e+00,    5.000000e+00
    3349,   -1.607143e+02,    0.000000e+00,    5.000000e+00
    3350,   -1.726190e+02,    0.000000e+00,    5.000000e+00
    3351,   -1.845238e+02,    0.000000e+00,    5.000000e+00
    3352,   -1.964286e+02,    0.000000e+00,    5.000000e+00
    3353,   -2.083333e+02,    0.000000e+00,    5.000000e+00
    3354,   -2.202381e+02,    0.000000e+00,    5.000000e+00
    3355,   -2.321429e+02,    0.000000e+00,    5.000000e+00
    3356,   -2.440476e+02,    0.000000e+00,    5.000000e+00
    3357,   -1.190476e+01,    0.000000e+00,    0.000000e+00
    3358,   -2.380952e+01,    0.000000e+00,    0.000000e+00
    3359,   -3.571429e+01,    0.000000e+00,    0.000000e+00
    3360,   -4.761905e+01,    0.000000e+00,    0.000000e+00
    3361,   -5.952381e+01,    0.000000e+00,    0.000000e+00
    3362,   -7.142857e+01,    0.000000e+00,    0.000000e+00
    3363,   -8.333333e+01,    0.000000e+00,    0.000000e+00
    3364,   -9.523810e+01,    0.000000e+00,    0.000000e+00
    3365,   -1.071429e+02,    0.000000e+00,    0.000000e+00
    3366,   -1.190476e+02,    0.000000e+00,    0.000000e+00
    3367,   -1.309524e+02,    0.000000e+00,    0.000000e+00
    3368,   -1.428571e+02,    0.000000e+00,    0.000000e+00
    3369,   -1.547619e+02,    0.000000e+00,    0.000000e+00
    3370,   -1.666667e+02,    0.000000e+00,    0.000000e+00
    3371,   -1.785714e+02,    0.000000e+00,    0.000000e+00
    3372,   -1.904762e+02,    0.000000e+00,    0.000000e+00
    3373,   -2.023810e+02,    0.000000e+00,    0.000000e+00
    3374,   -2.142857e+02,    0.000000e+00,    0.000000e+00
    3375,   -2.261905e+02,    0.000000e+00,    0.000000e+00
    3376,   -2.380952e+02,    0.000000e+00,    0.000000e+00
    3377,    0.000000e+00,    2.440476e+02,    5.000000e+00
    3378,    0.000000e+00,    2.321429e+02,    5.000000e+00
    3379,    0.000000e+00,    2.202381e+02,    5.000000e+00
    3380,    0.000000e+00,    2.083333e+02,    5.000000e+00
    3381,    0.000000e+00,    1.964286e+02,    5.000000e+00
    3382,    0.000000e+00,    1.845238e+02,    5.000000e+00
    3383,    0.000000e+00,    1.726190e+02,    5.000000e+00
    3384,    0.000000e+00,    1.607143e+02,    5.000000e+00
    3385,    0.000000e+00,    1.488095e+02,    5.000000e+00
    3386,    0.000000e+00,    1.369048e+02,    5.000000e+00
    3387,    0.000000e+00,    1.250000e+02,    5.000000e+00
    3388,    0.000000e+00,    1.130952e+02,    5.000000e+00
    3389,    0.000000e+00,    1.011905e+02,    5.000000e+00
    3390,    0.000000e+00,    8.928571e+01,    5.000000e+00
    3391,    0.000000e+00,    7.738095e+01,    5.000000e+00
    3392,    0.000000e+00,    6.547619e+01,    5.000000e+00
    3393,    0.000000e+00,    5.357143e+01,    5.000000e+00
    3394,    0.000000e+00,    4.166667e+01,    5.000000e+00
    3395,    0.000000e+00,    2.976190e+01,    5.000000e+00
    3396,    0.000000e+00,    1.785714e+01,    5.000000e+00
    3397,    0.000000e+00,    5.952381e+00,    5.000000e+00
    3398,   -5.952381e+00,    2.500000e+02,    5.000000e+00
    3399,   -1.785714e+01,    2.500000e+02,    5.000000e+00
    3400,   -2.976190e+01,    2.500000e+02,    5.000000e+00
    3401,   -4.166667e+01,    2.500000e+02,    5.000000e+00
    3402,   -5.357143e+01,    2.500000e+02,    5.000000e+00
    3403,   -6.547619e+01,    2.500000e+02,    5.000000e+00
    3404,   -7.738095e+01,    2.500000e+02,    5.000000e+00
    3405,   -8.928571e+01,    2.500000e+02,    5.000000e+00
    3406,   -1.011905e+02,    2.500000e+02,    5.000000e+00
    3407,   -1.130952e+02,    2.500000e+02,    5.000000e+00
    3408,   -1.250000e+02,    2.500000e+02,    5.000000e+00
    3409,   -1.369048e+02,    2.500000e+02,    5.000000e+00
    3410,   -1.488095e+02,    2.500000e+02,    5.000000e+00
    3411,   -1.607143e+02,    2.500000e+02,    5.000000e+00
    3412,   -1.726190e+02,    2.500000e+02,    5.000000e+00
    3413,   -1.845238e+02,    2.500000e+02,    5.000000e+00
    3414,   -1.964286e+02,    2.500000e+02,    5.000000e+00
    3415,   -2.083333e+02,    2.500000e+02,    5.000000e+00
    3416,   -2.202381e+02,    2.500000e+02,    5.000000e+00
    3417,   -2.321429e+02,    2.500000e+02,    5.000000e+00
    3418,   -2.440476e+02,    2.500000e+02,    5.000000e+00
    3419,   -2.500000e+02,    2.440476e+02,    5.000000e+00
    3420,   -2.500000e+02,    2.321429e+02,    5.000000e+00
    3421,   -2.500000e+02,    2.202381e+02,    5.000000e+00
    3422,   -2.500000e+02,    2.083333e+02,    5.000000e+00
    3423,   -2.500000e+02,    1.964286e+02,    5.000000e+00
    3424,   -2.500000e+02,    1.845238e+02,    5.000000e+00
    3425,   -2.500000e+02,    1.726190e+02,    5.000000e+00
    3426,   -2.500000e+02,    1.607143e+02,    5.000000e+00
    3427,   -2.500000e+02,    1.488095e+02,    5.000000e+00
    3428,   -2.500000e+02,    1.369048e+02,    5.000000e+00
    3429,   -2.500000e+02,    1.250000e+02,    5.000000e+00
    3430,   -2.500000e+02,    1.130952e+02,    5.000000e+00
    3431,   -2.500000e+02,    1.011905e+02,    5.000000e+00
    3432,   -2.500000e+02,    8.928571e+01,    5.000000e+00
    3433,   -2.500000e+02,    7.738095e+01,    5.000000e+00
    3434,   -2.500000e+02,    6.547619e+01,    5.000000e+00
    3435,   -2.500000e+02,    5.357143e+01,    5.000000e+00
    3436,   -2.500000e+02,    4.166667e+01,    5.000000e+00
    3437,   -2.500000e+02,    2.976190e+01,    5.000000e+00
    3438,   -2.500000e+02,    1.785714e+01,    5.000000e+00
    3439,   -2.500000e+02,    5.952381e+00,    5.000000e+00
    3440,   -2.440476e+02,    2.380952e+02,    5.000000e+00
    3441,   -2.380952e+02,    2.440476e+02,    5.000000e+00
    3442,   -2.321429e+02,    2.380952e+02,    5.000000e+00
    3443,   -2.261905e+02,    2.440476e+02,    5.000000e+00
    3444,   -2.202381e+02,    2.380952e+02,    5.000000e+00
    3445,   -2.142857e+02,    2.440476e+02,    5.000000e+00
    3446,   -2.083333e+02,    2.380952e+02,    5.000000e+00
    3447,   -2.023810e+02,    2.440476e+02,    5.000000e+00
    3448,   -1.964286e+02,    2.380952e+02,    5.000000e+00
    3449,   -1.904762e+02,    2.440476e+02,    5.000000e+00
    3450,   -1.845238e+02,    2.380952e+02,    5.000000e+00
    3451,   -1.785714e+02,    2.440476e+02,    5.000000e+00
    3452,   -1.726190e+02,    2.380952e+02,    5.000000e+00
    3453,   -1.666667e+02,    2.440476e+02,    5.000000e+00
    3454,   -1.607143e+02,    2.380952e+02,    5.000000e+00
    3455,   -1.547619e+02,    2.440476e+02,    5.000000e+00
    3456,   -1.488095e+02,    2.380952e+02,    5.000000e+00
    3457,   -1.428571e+02,    2.440476e+02,    5.000000e+00
    3458,   -1.369048e+02,    2.380952e+02,    5.000000e+00
    3459,   -1.309524e+02,    2.440476e+02,    5.000000e+00
    3460,   -1.250000e+02,    2.380952e+02,    5.000000e+00
    3461,   -1.190476e+02,    2.440476e+02,    5.000000e+00
    3462,   -1.130952e+02,    2.380952e+02,    5.000000e+00
    3463,   -1.071429e+02,    2.440476e+02,    5.000000e+00
    3464,   -1.011905e+02,    2.380952e+02,    5.000000e+00
    3465,   -9.523810e+01,    2.440476e+02,    5.000000e+00
    3466,   -8.928571e+01,    2.380952e+02,    5.000000e+00
    3467,   -8.333333e+01,    2.440476e+02,    5.000000e+00
    3468,   -7.738095e+01,    2.380952e+02,    5.000000e+00
    3469,   -7.142857e+01,    2.440476e+02,    5.000000e+00
    3470,   -6.547619e+01,    2.380952e+02,    5.000000e+00
    3471,   -5.952381e+01,    2.440476e+02,    5.000000e+00
    3472,   -5.357143e+01,    2.380952e+02,    5.000000e+00
    3473,   -4.761905e+01,    2.440476e+02,    5.000000e+00
    3474,   -4.166667e+01,    2.380952e+02,    5.000000e+00
    3475,   -3.571429e+01,    2.440476e+02,    5.000000e+00
    3476,   -2.976190e+01,    2.380952e+02,    5.000000e+00
    3477,   -2.380952e+01,    2.440476e+02,    5.000000e+00
    3478,   -1.785714e+01,    2.380952e+02,    5.000000e+00
    3479,   -1.190476e+01,    2.440476e+02,    5.000000e+00
    3480,   -5.952381e+00,    2.380952e+02,    5.000000e+00
    3481,   -2.440476e+02,    2.261905e+02,    5.000000e+00
    3482,   -2.380952e+02,    2.321429e+02,    5.000000e+00
    3483,   -2.321429e+02,    2.261905e+02,    5.000000e+00
    3484,   -2.261905e+02,    2.321429e+02,    5.000000e+00
    3485,   -2.202381e+02,    2.261905e+02,    5.000000e+00
    3486,   -2.142857e+02,    2.321429e+02,    5.000000e+00
    3487,   -2.083333e+02,    2.261905e+02,    5.000000e+00
    3488,   -2.023810e+02,    2.321429e+02,    5.000000e+00
    3489,   -1.964286e+02,    2.261905e+02,    5.000000e+00
    3490,   -1.904762e+02,    2.321429e+02,    5.000000e+00
    3491,   -1.845238e+02,    2.261905e+02,    5.000000e+00
    3492,   -1.785714e+02,    2.321429e+02,    5.000000e+00
    3493,   -1.726190e+02,    2.261905e+02,    5.000000e+00
    3494,   -1.666667e+02,    2.321429e+02,    5.000000e+00
    3495,   -1.607143e+02,    2.261905e+02,    5.000000e+00
    3496,   -1.547619e+02,    2.321429e+02,    5.000000e+00
    3497,   -1.488095e+02,    2.261905e+02,    5.000000e+00
    3498,   -1.428571e+02,    2.321429e+02,    5.000000e+00
    3499,   -1.369048e+02,    2.261905e+02,    5.000000e+00
    3500,   -1.309524e+02,    2.321429e+02,    5.000000e+00
    3501,   -1.250000e+02,    2.261905e+02,    5.000000e+00
    3502,   -1.190476e+02,    2.321429e+02,    5.000000e+00
    3503,   -1.130952e+02,    2.261905e+02,    5.000000e+00
    3504,   -1.071429e+02,    2.321429e+02,    5.000000e+00
    3505,   -1.011905e+02,    2.261905e+02,    5.000000e+00
    3506,   -9.523810e+01,    2.321429e+02,    5.000000e+00
    3507,   -8.928571e+01,    2.261905e+02,    5.000000e+00
    3508,   -8.333333e+01,    2.321429e+02,    5.000000e+00
    3509,   -7.738095e+01,    2.261905e+02,    5.000000e+00
    3510,   -7.142857e+01,    2.321429e+02,    5.000000e+00
    3511,   -6.547619e+01,    2.261905e+02,    5.000000e+00
    3512,   -5.952381e+01,    2.321429e+02,    5.000000e+00
    3513,   -5.357143e+01,    2.261905e+02,    5.000000e+00
    3514,   -4.761905e+01,    2.321429e+02,    5.000000e+00
    3515,   -4.166667e+01,    2.261905e+02,    5.000000e+00
    3516,   -3.571429e+01,    2.321429e+02,    5.000000e+00
    3517,   -2.976190e+01,    2.261905e+02,    5.000000e+00
    3518,   -2.380952e+01,    2.321429e+02,    5.000000e+00
    3519,   -1.785714e+01,    2.261905e+02,    5.000000e+00
    3520,   -1.190476e+01,    2.321429e+02,    5.000000e+00
    3521,   -5.952381e+00,    2.261905e+02,    5.000000e+00
    3522,   -2.440476e+02,    2.142857e+02,    5.000000e+00
    3523,   -2.380952e+02,    2.202381e+02,    5.000000e+00
    3524,   -2.321429e+02,    2.142857e+02,    5.000000e+00
    3525,   -2.261905e+02,    2.202381e+02,    5.000000e+00
    3526,   -2.202381e+02,    2.142857e+02,    5.000000e+00
    3527,   -2.142857e+02,    2.202381e+02,    5.000000e+00
    3528,   -2.083333e+02,    2.142857e+02,    5.000000e+00
    3529,   -2.023810e+02,    2.202381e+02,    5.000000e+00
    3530,   -1.964286e+02,    2.142857e+02,    5.000000e+00
    3531,   -1.904762e+02,    2.202381e+02,    5.000000e+00
    3532,   -1.845238e+02,    2.142857e+02,    5.000000e+00
    3533,   -1.785714e+02,    2.202381e+02,    5.000000e+00
    3534,   -1.726190e+02,    2.142857e+02,    5.000000e+00
    3535,   -1.666667e+02,    2.202381e+02,    5.000000e+00
    3536,   -1.607143e+02,    2.142857e+02,    5.000000e+00
    3537,   -1.547619e+02,    2.202381e+02,    5.000000e+00
    3538,   -1.488095e+02,    2.142857e+02,    5.000000e+00
    3539,   -1.428571e+02,    2.202381e+02,    5.000000e+00
    3540,   -1.369048e+02,    2.142857e+02,    5.000000e+00
    3541,   -1.309524e+02,    2.202381e+02,    5.000000e+00
    3542,   -1.250000e+02,    2.142857e+02,    5.000000e+00
    3543,   -1.190476e+02,    2.202381e+02,    5.000000e+00
    3544,   -1.130952e+02,    2.142857e+02,    5.000000e+00
    3545,   -1.071429e+02,    2.202381e+02,    5.000000e+00
    3546,   -1.011905e+02,    2.142857e+02,    5.000000e+00
    3547,   -9.523810e+01,    2.202381e+02,    5.000000e+00
    3548,   -8.928571e+01,    2.142857e+02,    5.000000e+00
    3549,   -8.333333e+01,    2.202381e+02,    5.000000e+00
    3550,   -7.738095e+01,    2.142857e+02,    5.000000e+00
    3551,   -7.142857e+01,    2.202381e+02,    5.000000e+00
    3552,   -6.547619e+01,    2.142857e+02,    5.000000e+00
    3553,   -5.952381e+01,    2.202381e+02,    5.000000e+00
    3554,   -5.357143e+01,    2.142857e+02,    5.000000e+00
    3555,   -4.761905e+01,    2.202381e+02,    5.000000e+00
    3556,   -4.166667e+01,    2.142857e+02,    5.000000e+00
    3557,   -3.571429e+01,    2.202381e+02,    5.000000e+00
    3558,   -2.976190e+01,    2.142857e+02,    5.000000e+00
    3559,   -2.380952e+01,    2.202381e+02,    5.000000e+00
    3560,   -1.785714e+01,    2.142857e+02,    5.000000e+00
    3561,   -1.190476e+01,    2.202381e+02,    5.000000e+00
    3562,   -5.952381e+00,    2.142857e+02,    5.000000e+00
    3563,   -2.440476e+02,    2.023810e+02,    5.000000e+00
    3564,   -2.380952e+02,    2.083333e+02,    5.000000e+00
    3565,   -2.321429e+02,    2.023810e+02,    5.000000e+00
    3566,   -2.261905e+02,    2.083333e+02,    5.000000e+00
    3567,   -2.202381e+02,    2.023810e+02,    5.000000e+00
    3568,   -2.142857e+02,    2.083333e+02,    5.000000e+00
    3569,   -2.083333e+02,    2.023810e+02,    5.000000e+00
    3570,   -2.023810e+02,    2.083333e+02,    5.000000e+00
    3571,   -1.964286e+02,    2.023810e+02,    5.000000e+00
    3572,   -1.904762e+02,    2.083333e+02,    5.000000e+00
    3573,   -1.845238e+02,    2.023810e+02,    5.000000e+00
    3574,   -1.785714e+02,    2.083333e+02,    5.000000e+00
    3575,   -1.726190e+02,    2.023810e+02,    5.000000e+00
    3576,   -1.666667e+02,    2.083333e+02,    5.000000e+00
    3577,   -1.607143e+02,    2.023810e+02,    5.000000e+00
    3578,   -1.547619e+02,    2.083333e+02,    5.000000e+00
    3579,   -1.488095e+02,    2.023810e+02,    5.000000e+00
    3580,   -1.428571e+02,    2.083333e+02,    5.000000e+00
    3581,   -1.369048e+02,    2.023810e+02,    5.000000e+00
    3582,   -1.309524e+02,    2.083333e+02,    5.000000e+00
    3583,   -1.250000e+02,    2.023810e+02,    5.000000e+00
    3584,   -1.190476e+02,    2.083333e+02,    5.000000e+00
    3585,   -1.130952e+02,    2.023810e+02,    5.000000e+00
    3586,   -1.071429e+02,    2.083333e+02,    5.000000e+00
    3587,   -1.011905e+02,    2.023810e+02,    5.000000e+00
    3588,   -9.523810e+01,    2.083333e+02,    5.000000e+00
    3589,   -8.928571e+01,    2.023810e+02,    5.000000e+00
    3590,   -8.333333e+01,    2.083333e+02,    5.000000e+00
    3591,   -7.738095e+01,    2.023810e+02,    5.000000e+00
    3592,   -7.142857e+01,    2.083333e+02,    5.000000e+00
    3593,   -6.547619e+01,    2.023810e+02,    5.000000e+00
    3594,   -5.952381e+01,    2.083333e+02,    5.000000e+00
    3595,   -5.357143e+01,    2.023810e+02,    5.000000e+00
    3596,   -4.761905e+01,    2.083333e+02,    5.000000e+00
    3597,   -4.166667e+01,    2.023810e+02,    5.000000e+00
    3598,   -3.571429e+01,    2.083333e+02,    5.000000e+00
    3599,   -2.976190e+01,    2.023810e+02,    5.000000e+00
    3600,   -2.380952e+01,    2.083333e+02,    5.000000e+00
    3601,   -1.785714e+01,    2.023810e+02,    5.000000e+00
    3602,   -1.190476e+01,    2.083333e+02,    5.000000e+00
    3603,   -5.952381e+00,    2.023810e+02,    5.000000e+00
    3604,   -2.440476e+02,    1.904762e+02,    5.000000e+00
    3605,   -2.380952e+02,    1.964286e+02,    5.000000e+00
    3606,   -2.321429e+02,    1.904762e+02,    5.000000e+00
    3607,   -2.261905e+02,    1.964286e+02,    5.000000e+00
    3608,   -2.202381e+02,    1.904762e+02,    5.000000e+00
    3609,   -2.142857e+02,    1.964286e+02,    5.000000e+00
    3610,   -2.083333e+02,    1.904762e+02,    5.000000e+00
    3611,   -2.023810e+02,    1.964286e+02,    5.000000e+00
    3612,   -1.964286e+02,    1.904762e+02,    5.000000e+00
    3613,   -1.904762e+02,    1.964286e+02,    5.000000e+00
    3614,   -1.845238e+02,    1.904762e+02,    5.000000e+00
    3615,   -1.785714e+02,    1.964286e+02,    5.000000e+00
    3616,   -1.726190e+02,    1.904762e+02,    5.000000e+00
    3617,   -1.666667e+02,    1.964286e+02,    5.000000e+00
    3618,   -1.607143e+02,    1.904762e+02,    5.000000e+00
    3619,   -1.547619e+02,    1.964286e+02,    5.000000e+00
    3620,   -1.488095e+02,    1.904762e+02,    5.000000e+00
    3621,   -1.428571e+02,    1.964286e+02,    5.000000e+00
    3622,   -1.369048e+02,    1.904762e+02,    5.000000e+00
    3623,   -1.309524e+02,    1.964286e+02,    5.000000e+00
    3624,   -1.250000e+02,    1.904762e+02,    5.000000e+00
    3625,   -1.190476e+02,    1.964286e+02,    5.000000e+00
    3626,   -1.130952e+02,    1.904762e+02,    5.000000e+00
    3627,   -1.071429e+02,    1.964286e+02,    5.000000e+00
    3628,   -1.011905e+02,    1.904762e+02,    5.000000e+00
    3629,   -9.523810e+01,    1.964286e+02,    5.000000e+00
    3630,   -8.928571e+01,    1.904762e+02,    5.000000e+00
    3631,   -8.333333e+01,    1.964286e+02,    5.000000e+00
    3632,   -7.738095e+01,    1.904762e+02,    5.000000e+00
    3633,   -7.142857e+01,    1.964286e+02,    5.000000e+00
    3634,   -6.547619e+01,    1.904762e+02,    5.000000e+00
    3635,   -5.952381e+01,    1.964286e+02,    5.000000e+00
    3636,   -5.357143e+01,    1.904762e+02,    5.000000e+00
    3637,   -4.761905e+01,    1.964286e+02,    5.000000e+00
    3638,   -4.166667e+01,    1.904762e+02,    5.000000e+00
    3639,   -3.571429e+01,    1.964286e+02,    5.000000e+00
    3640,   -2.976190e+01,    1.904762e+02,    5.000000e+00
    3641,   -2.380952e+01,    1.964286e+02,    5.000000e+00
    3642,   -1.785714e+01,    1.904762e+02,    5.000000e+00
    3643,   -1.190476e+01,    1.964286e+02,    5.000000e+00
    3644,   -5.952381e+00,    1.904762e+02,    5.000000e+00
    3645,   -2.440476e+02,    1.785714e+02,    5.000000e+00
    3646,   -2.380952e+02,    1.845238e+02,    5.000000e+00
    3647,   -2.321429e+02,    1.785714e+02,    5.000000e+00
    3648,   -2.261905e+02,    1.845238e+02,    5.000000e+00
    3649,   -2.202381e+02,    1.785714e+02,    5.000000e+00
    3650,   -2.142857e+02,    1.845238e+02,    5.000000e+00
    3651,   -2.083333e+02,    1.785714e+02,    5.000000e+00
    3652,   -2.023810e+02,    1.845238e+02,    5.000000e+00
    3653,   -1.964286e+02,    1.785714e+02,    5.000000e+00
    3654,   -1.904762e+02,    1.845238e+02,    5.000000e+00
    3655,   -1.845238e+02,    1.785714e+02,    5.000000e+00
    3656,   -1.785714e+02,    1.845238e+02,    5.000000e+00
    3657,   -1.726190e+02,    1.785714e+02,    5.000000e+00
    3658,   -1.666667e+02,    1.845238e+02,    5.000000e+00
    3659,   -1.607143e+02,    1.785714e+02,    5.000000e+00
    3660,   -1.547619e+02,    1.845238e+02,    5.000000e+00
    3661,   -1.488095e+02,    1.785714e+02,    5.000000e+00
    3662,   -1.428571e+02,    1.845238e+02,    5.000000e+00
    3663,   -1.369048e+02,    1.785714e+02,    5.000000e+00
    3664,   -1.309524e+02,    1.845238e+02,    5.000000e+00
    3665,   -1.250000e+02,    1.785714e+02,    5.000000e+00
    3666,   -1.190476e+02,    1.845238e+02,    5.000000e+00
    3667,   -1.130952e+02,    1.785714e+02,    5.000000e+00
    3668,   -1.071429e+02,    1.845238e+02,    5.000000e+00
    3669,   -1.011905e+02,    1.785714e+02,    5.000000e+00
    3670,   -9.523810e+01,    1.845238e+02,    5.000000e+00
    3671,   -8.928571e+01,    1.785714e+02,    5.000000e+00
    3672,   -8.333333e+01,    1.845238e+02,    5.000000e+00
    3673,   -7.738095e+01,    1.785714e+02,    5.000000e+00
    3674,   -7.142857e+01,    1.845238e+02,    5.000000e+00
    3675,   -6.547619e+01,    1.785714e+02,    5.000000e+00
    3676,   -5.952381e+01,    1.845238e+02,    5.000000e+00
    3677,   -5.357143e+01,    1.785714e+02,    5.000000e+00
    3678,   -4.761905e+01,    1.845238e+02,    5.000000e+00
    3679,   -4.166667e+01,    1.785714e+02,    5.000000e+00
    3680,   -3.571429e+01,    1.845238e+02,    5.000000e+00
    3681,   -2.976190e+01,    1.785714e+02,    5.000000e+00
    3682,   -2.380952e+01,    1.845238e+02,    5.000000e+00
    3683,   -1.785714e+01,    1.785714e+02,    5.000000e+00
    3684,   -1.190476e+01,    1.845238e+02,    5.000000e+00
    3685,   -5.952381e+00,    1.785714e+02,    5.000000e+00
    3686,   -2.440476e+02,    1.666667e+02,    5.000000e+00
    3687,   -2.380952e+02,    1.726190e+02,    5.000000e+00
    3688,   -2.321429e+02,    1.666667e+02,    5.000000e+00
    3689,   -2.261905e+02,    1.726190e+02,    5.000000e+00
    3690,   -2.202381e+02,    1.666667e+02,    5.000000e+00
    3691,   -2.142857e+02,    1.726190e+02,    5.000000e+00
    3692,   -2.083333e+02,    1.666667e+02,    5.000000e+00
    3693,   -2.023810e+02,    1.726190e+02,    5.000000e+00
    3694,   -1.964286e+02,    1.666667e+02,    5.000000e+00
    3695,   -1.904762e+02,    1.726190e+02,    5.000000e+00
    3696,   -1.845238e+02,    1.666667e+02,    5.000000e+00
    3697,   -1.785714e+02,    1.726190e+02,    5.000000e+00
    3698,   -1.726190e+02,    1.666667e+02,    5.000000e+00
    3699,   -1.666667e+02,    1.726190e+02,    5.000000e+00
    3700,   -1.607143e+02,    1.666667e+02,    5.000000e+00
    3701,   -1.547619e+02,    1.726190e+02,    5.000000e+00
    3702,   -1.488095e+02,    1.666667e+02,    5.000000e+00
    3703,   -1.428571e+02,    1.726190e+02,    5.000000e+00
    3704,   -1.369048e+02,    1.666667e+02,    5.000000e+00
    3705,   -1.309524e+02,    1.726190e+02,    5.000000e+00
    3706,   -1.250000e+02,    1.666667e+02,    5.000000e+00
    3707,   -1.190476e+02,    1.726190e+02,    5.000000e+00
    3708,   -1.130952e+02,    1.666667e+02,    5.000000e+00
    3709,   -1.071429e+02,    1.726190e+02,    5.000000e+00
    3710,   -1.011905e+02,    1.666667e+02,    5.000000e+00
    3711,   -9.523810e+01,    1.726190e+02,    5.000000e+00
    3712,   -8.928571e+01,    1.666667e+02,    5.000000e+00
    3713,   -8.333333e+01,    1.726190e+02,    5.000000e+00
    3714,   -7.738095e+01,    1.666667e+02,    5.000000e+00
    3715,   -7.142857e+01,    1.726190e+02,    5.000000e+00
    3716,   -6.547619e+01,    1.666667e+02,    5.000000e+00
    3717,   -5.952381e+01,    1.726190e+02,    5.000000e+00
    3718,   -5.357143e+01,    1.666667e+02,    5.000000e+00
    3719,   -4.761905e+01,    1.726190e+02,    5.000000e+00
    3720,   -4.166667e+01,    1.666667e+02,    5.000000e+00
    3721,   -3.571429e+01,    1.726190e+02,    5.000000e+00
    3722,   -2.976190e+01,    1.666667e+02,    5.000000e+00
    3723,   -2.380952e+01,    1.726190e+02,    5.000000e+00
    3724,   -1.785714e+01,    1.666667e+02,    5.000000e+00
    3725,   -1.190476e+01,    1.726190e+02,    5.000000e+00
    3726,   -5.952381e+00,    1.666667e+02,    5.000000e+00
    3727,   -2.440476e+02,    1.547619e+02,    5.000000e+00
    3728,   -2.380952e+02,    1.607143e+02,    5.000000e+00
    3729,   -2.321429e+02,    1.547619e+02,    5.000000e+00
    3730,   -2.261905e+02,    1.607143e+02,    5.000000e+00
    3731,   -2.202381e+02,    1.547619e+02,    5.000000e+00
    3732,   -2.142857e+02,    1.607143e+02,    5.000000e+00
    3733,   -2.083333e+02,    1.547619e+02,    5.000000e+00
    3734,   -2.023810e+02,    1.607143e+02,    5.000000e+00
    3735,   -1.964286e+02,    1.547619e+02,    5.000000e+00
    3736,   -1.904762e+02,    1.607143e+02,    5.000000e+00
    3737,   -1.845238e+02,    1.547619e+02,    5.000000e+00
    3738,   -1.785714e+02,    1.607143e+02,    5.000000e+00
    3739,   -1.726190e+02,    1.547619e+02,    5.000000e+00
    3740,   -1.666667e+02,    1.607143e+02,    5.000000e+00
    3741,   -1.607143e+02,    1.547619e+02,    5.000000e+00
    3742,   -1.547619e+02,    1.607143e+02,    5.000000e+00
    3743,   -1.488095e+02,    1.547619e+02,    5.000000e+00
    3744,   -1.428571e+02,    1.607143e+02,    5.000000e+00
    3745,   -1.369048e+02,    1.547619e+02,    5.000000e+00
    3746,   -1.309524e+02,    1.607143e+02,    5.000000e+00
    3747,   -1.250000e+02,    1.547619e+02,    5.000000e+00
    3748,   -1.190476e+02,    1.607143e+02,    5.000000e+00
    3749,   -1.130952e+02,    1.547619e+02,    5.000000e+00
    3750,   -1.071429e+02,    1.607143e+02,    5.000000e+00
    3751,   -1.011905e+02,    1.547619e+02,    5.000000e+00
    3752,   -9.523810e+01,    1.607143e+02,    5.000000e+00
    3753,   -8.928571e+01,    1.547619e+02,    5.000000e+00
    3754,   -8.333333e+01,    1.607143e+02,    5.000000e+00
    3755,   -7.738095e+01,    1.547619e+02,    5.000000e+00
    3756,   -7.142857e+01,    1.607143e+02,    5.000000e+00
    3757,   -6.547619e+01,    1.547619e+02,    5.000000e+00
    3758,   -5.952381e+01,    1.607143e+02,    5.000000e+00
    3759,   -5.357143e+01,    1.547619e+02,    5.000000e+00
    3760,   -4.761905e+01,    1.607143e+02,    5.000000e+00
    3761,   -4.166667e+01,    1.547619e+02,    5.000000e+00
    3762,   -3.571429e+01,    1.607143e+02,    5.000000e+00
    3763,   -2.976190e+01,    1.547619e+02,    5.000000e+00
    3764,   -2.380952e+01,    1.607143e+02,    5.000000e+00
    3765,   -1.785714e+01,    1.547619e+02,    5.000000e+00
    3766,   -1.190476e+01,    1.607143e+02,    5.000000e+00
    3767,   -5.952381e+00,    1.547619e+02,    5.000000e+00
    3768,   -2.440476e+02,    1.428571e+02,    5.000000e+00
    3769,   -2.380952e+02,    1.488095e+02,    5.000000e+00
    3770,   -2.321429e+02,    1.428571e+02,    5.000000e+00
    3771,   -2.261905e+02,    1.488095e+02,    5.000000e+00
    3772,   -2.202381e+02,    1.428571e+02,    5.000000e+00
    3773,   -2.142857e+02,    1.488095e+02,    5.000000e+00
    3774,   -2.083333e+02,    1.428571e+02,    5.000000e+00
    3775,   -2.023810e+02,    1.488095e+02,    5.000000e+00
    3776,   -1.964286e+02,    1.428571e+02,    5.000000e+00
    3777,   -1.904762e+02,    1.488095e+02,    5.000000e+00
    3778,   -1.845238e+02,    1.428571e+02,    5.000000e+00
    3779,   -1.785714e+02,    1.488095e+02,    5.000000e+00
    3780,   -1.726190e+02,    1.428571e+02,    5.000000e+00
    3781,   -1.666667e+02,    1.488095e+02,    5.000000e+00
    3782,   -1.607143e+02,    1.428571e+02,    5.000000e+00
    3783,   -1.547619e+02,    1.488095e+02,    5.000000e+00
    3784,   -1.488095e+02,    1.428571e+02,    5.000000e+00
    3785,   -1.428571e+02,    1.488095e+02,    5.000000e+00
    3786,   -1.369048e+02,    1.428571e+02,    5.000000e+00
    3787,   -1.309524e+02,    1.488095e+02,    5.000000e+00
    3788,   -1.250000e+02,    1.428571e+02,    5.000000e+00
    3789,   -1.190476e+02,    1.488095e+02,    5.000000e+00
    3790,   -1.130952e+02,    1.428571e+02,    5.000000e+00
    3791,   -1.071429e+02,    1.488095e+02,    5.000000e+00
    3792,   -1.011905e+02,    1.428571e+02,    5.000000e+00
    3793,   -9.523810e+01,    1.488095e+02,    5.000000e+00
    3794,   -8.928571e+01,    1.428571e+02,    5.000000e+00
    3795,   -8.333333e+01,    1.488095e+02,    5.000000e+00
    3796,   -7.738095e+01,    1.428571e+02,    5.000000e+00
    3797,   -7.142857e+01,    1.488095e+02,    5.000000e+00
    3798,   -6.547619e+01,    1.428571e+02,    5.000000e+00
    3799,   -5.952381e+01,    1.488095e+02,    5.000000e+00
    3800,   -5.357143e+01,    1.428571e+02,    5.000000e+00
    3801,   -4.761905e+01,    1.488095e+02,    5.000000e+00
    3802,   -4.166667e+01,    1.428571e+02,    5.000000e+00
    3803,   -3.571429e+01,    1.488095e+02,    5.000000e+00
    3804,   -2.976190e+01,    1.428571e+02,    5.000000e+00
    3805,   -2.380952e+01,    1.488095e+02,    5.000000e+00
    3806,   -1.785714e+01,    1.428571e+02,    5.000000e+00
    3807,   -1.190476e+01,    1.488095e+02,    5.000000e+00
    3808,   -5.952381e+00,    1.428571e+02,    5.000000e+00
    3809,   -2.440476e+02,    1.309524e+02,    5.000000e+00
    3810,   -2.380952e+02,    1.369048e+02,    5.000000e+00
    3811,   -2.321429e+02,    1.309524e+02,    5.000000e+00
    3812,   -2.261905e+02,    1.369048e+02,    5.000000e+00
    3813,   -2.202381e+02,    1.309524e+02,    5.000000e+00
    3814,   -2.142857e+02,    1.369048e+02,    5.000000e+00
    3815,   -2.083333e+02,    1.309524e+02,    5.000000e+00
    3816,   -2.023810e+02,    1.369048e+02,    5.000000e+00
    3817,   -1.964286e+02,    1.309524e+02,    5.000000e+00
    3818,   -1.904762e+02,    1.369048e+02,    5.000000e+00
    3819,   -1.845238e+02,    1.309524e+02,    5.000000e+00
    3820,   -1.785714e+02,    1.369048e+02,    5.000000e+00
    3821,   -1.726190e+02,    1.309524e+02,    5.000000e+00
    3822,   -1.666667e+02,    1.369048e+02,    5.000000e+00
    3823,   -1.607143e+02,    1.309524e+02,    5.000000e+00
    3824,   -1.547619e+02,    1.369048e+02,    5.000000e+00
    3825,   -1.488095e+02,    1.309524e+02,    5.000000e+00
    3826,   -1.428571e+02,    1.369048e+02,    5.000000e+00
    3827,   -1.369048e+02,    1.309524e+02,    5.000000e+00
    3828,   -1.309524e+02,    1.369048e+02,    5.000000e+00
    3829,   -1.250000e+02,    1.309524e+02,    5.000000e+00
    3830,   -1.190476e+02,    1.369048e+02,    5.000000e+00
    3831,   -1.130952e+02,    1.309524e+02,    5.000000e+00
    3832,   -1.071429e+02,    1.369048e+02,    5.000000e+00
    3833,   -1.011905e+02,    1.309524e+02,    5.000000e+00
    3834,   -9.523810e+01,    1.369048e+02,    5.000000e+00
    3835,   -8.928571e+01,    1.309524e+02,    5.000000e+00
    3836,   -8.333333e+01,    1.369048e+02,    5.000000e+00
    3837,   -7.738095e+01,    1.309524e+02,    5.000000e+00
    3838,   -7.142857e+01,    1.369048e+02,    5.000000e+00
    3839,   -6.547619e+01,    1.309524e+02,    5.000000e+00
    3840,   -5.952381e+01,    1.369048e+02,    5.000000e+00
    3841,   -5.357143e+01,    1.309524e+02,    5.000000e+00
    3842,   -4.761905e+01,    1.369048e+02,    5.000000e+00
    3843,   -4.166667e+01,    1.309524e+02,    5.000000e+00
    3844,   -3.571429e+01,    1.369048e+02,    5.000000e+00
    3845,   -2.976190e+01,    1.309524e+02,    5.000000e+00
    3846,   -2.380952e+01,    1.369048e+02,    5.000000e+00
    3847,   -1.785714e+01,    1.309524e+02,    5.000000e+00
    3848,   -1.190476e+01,    1.369048e+02,    5.000000e+00
    3849,   -5.952381e+00,    1.309524e+02,    5.000000e+00
    3850,   -2.440476e+02,    1.190476e+02,    5.000000e+00
    3851,   -2.380952e+02,    1.250000e+02,    5.000000e+00
    3852,   -2.321429e+02,    1.190476e+02,    5.000000e+00
    3853,   -2.261905e+02,    1.250000e+02,    5.000000e+00
    3854,   -2.202381e+02,    1.190476e+02,    5.000000e+00
    3855,   -2.142857e+02,    1.250000e+02,    5.000000e+00
    3856,   -2.083333e+02,    1.190476e+02,    5.000000e+00
    3857,   -2.023810e+02,    1.250000e+02,    5.000000e+00
    3858,   -1.964286e+02,    1.190476e+02,    5.000000e+00
    3859,   -1.904762e+02,    1.250000e+02,    5.000000e+00
    3860,   -1.845238e+02,    1.190476e+02,    5.000000e+00
    3861,   -1.785714e+02,    1.250000e+02,    5.000000e+00
    3862,   -1.726190e+02,    1.190476e+02,    5.000000e+00
    3863,   -1.666667e+02,    1.250000e+02,    5.000000e+00
    3864,   -1.607143e+02,    1.190476e+02,    5.000000e+00
    3865,   -1.547619e+02,    1.250000e+02,    5.000000e+00
    3866,   -1.488095e+02,    1.190476e+02,    5.000000e+00
    3867,   -1.428571e+02,    1.250000e+02,    5.000000e+00
    3868,   -1.369048e+02,    1.190476e+02,    5.000000e+00
    3869,   -1.309524e+02,    1.250000e+02,    5.000000e+00
    3870,   -1.250000e+02,    1.190476e+02,    5.000000e+00
    3871,   -1.190476e+02,    1.250000e+02,    5.000000e+00
    3872,   -1.130952e+02,    1.190476e+02,    5.000000e+00
    3873,   -1.071429e+02,    1.250000e+02,    5.000000e+00
    3874,   -1.011905e+02,    1.190476e+02,    5.000000e+00
    3875,   -9.523810e+01,    1.250000e+02,    5.000000e+00
    3876,   -8.928571e+01,    1.190476e+02,    5.000000e+00
    3877,   -8.333333e+01,    1.250000e+02,    5.000000e+00
    3878,   -7.738095e+01,    1.190476e+02,    5.000000e+00
    3879,   -7.142857e+01,    1.250000e+02,    5.000000e+00
    3880,   -6.547619e+01,    1.190476e+02,    5.000000e+00
    3881,   -5.952381e+01,    1.250000e+02,    5.000000e+00
    3882,   -5.357143e+01,    1.190476e+02,    5.000000e+00
    3883,   -4.761905e+01,    1.250000e+02,    5.000000e+00
    3884,   -4.166667e+01,    1.190476e+02,    5.000000e+00
    3885,   -3.571429e+01,    1.250000e+02,    5.000000e+00
    3886,   -2.976190e+01,    1.190476e+02,    5.000000e+00
    3887,   -2.380952e+01,    1.250000e+02,    5.000000e+00
    3888,   -1.785714e+01,    1.190476e+02,    5.000000e+00
    3889,   -1.190476e+01,    1.250000e+02,    5.000000e+00
    3890,   -5.952381e+00,    1.190476e+02,    5.000000e+00
    3891,   -2.440476e+02,    1.071429e+02,    5.000000e+00
    3892,   -2.380952e+02,    1.130952e+02,    5.000000e+00
    3893,   -2.321429e+02,    1.071429e+02,    5.000000e+00
    3894,   -2.261905e+02,    1.130952e+02,    5.000000e+00
    3895,   -2.202381e+02,    1.071429e+02,    5.000000e+00
    3896,   -2.142857e+02,    1.130952e+02,    5.000000e+00
    3897,   -2.083333e+02,    1.071429e+02,    5.000000e+00
    3898,   -2.023810e+02,    1.130952e+02,    5.000000e+00
    3899,   -1.964286e+02,    1.071429e+02,    5.000000e+00
    3900,   -1.904762e+02,    1.130952e+02,    5.000000e+00
    3901,   -1.845238e+02,    1.071429e+02,    5.000000e+00
    3902,   -1.785714e+02,    1.130952e+02,    5.000000e+00
    3903,   -1.726190e+02,    1.071429e+02,    5.000000e+00
    3904,   -1.666667e+02,    1.130952e+02,    5.000000e+00
    3905,   -1.607143e+02,    1.071429e+02,    5.000000e+00
    3906,   -1.547619e+02,    1.130952e+02,    5.000000e+00
    3907,   -1.488095e+02,    1.071429e+02,    5.000000e+00
    3908,   -1.428571e+02,    1.130952e+02,    5.000000e+00
    3909,   -1.369048e+02,    1.071429e+02,    5.000000e+00
    3910,   -1.309524e+02,    1.130952e+02,    5.000000e+00
    3911,   -1.250000e+02,    1.071429e+02,    5.000000e+00
    3912,   -1.190476e+02,    1.130952e+02,    5.000000e+00
    3913,   -1.130952e+02,    1.071429e+02,    5.000000e+00
    3914,   -1.071429e+02,    1.130952e+02,    5.000000e+00
    3915,   -1.011905e+02,    1.071429e+02,    5.000000e+00
    3916,   -9.523810e+01,    1.130952e+02,    5.000000e+00
    3917,   -8.928571e+01,    1.071429e+02,    5.000000e+00
    3918,   -8.333333e+01,    1.130952e+02,    5.000000e+00
    3919,   -7.738095e+01,    1.071429e+02,    5.000000e+00
    3920,   -7.142857e+01,    1.130952e+02,    5.000000e+00
    3921,   -6.547619e+01,    1.071429e+02,    5.000000e+00
    3922,   -5.952381e+01,    1.130952e+02,    5.000000e+00
    3923,   -5.357143e+01,    1.071429e+02,    5.000000e+00
    3924,   -4.761905e+01,    1.130952e+02,    5.000000e+00
    3925,   -4.166667e+01,    1.071429e+02,    5.000000e+00
    3926,   -3.571429e+01,    1.130952e+02,    5.000000e+00
    3927,   -2.976190e+01,    1.071429e+02,    5.000000e+00
    3928,   -2.380952e+01,    1.130952e+02,    5.000000e+00
    3929,   -1.785714e+01,    1.071429e+02,    5.000000e+00
    3930,   -1.190476e+01,    1.130952e+02,    5.000000e+00
    3931,   -5.952381e+00,    1.071429e+02,    5.000000e+00
    3932,   -2.440476e+02,    9.523810e+01,    5.000000e+00
    3933,   -2.380952e+02,    1.011905e+02,    5.000000e+00
    3934,   -2.321429e+02,    9.523810e+01,    5.000000e+00
    3935,   -2.261905e+02,    1.011905e+02,    5.000000e+00
    3936,   -2.202381e+02,    9.523810e+01,    5.000000e+00
    3937,   -2.142857e+02,    1.011905e+02,    5.000000e+00
    3938,   -2.083333e+02,    9.523810e+01,    5.000000e+00
    3939,   -2.023810e+02,    1.011905e+02,    5.000000e+00
    3940,   -1.964286e+02,    9.523810e+01,    5.000000e+00
    3941,   -1.904762e+02,    1.011905e+02,    5.000000e+00
    3942,   -1.845238e+02,    9.523810e+01,    5.000000e+00
    3943,   -1.785714e+02,    1.011905e+02,    5.000000e+00
    3944,   -1.726190e+02,    9.523810e+01,    5.000000e+00
    3945,   -1.666667e+02,    1.011905e+02,    5.000000e+00
    3946,   -1.607143e+02,    9.523810e+01,    5.000000e+00
    3947,   -1.547619e+02,    1.011905e+02,    5.000000e+00
    3948,   -1.488095e+02,    9.523810e+01,    5.000000e+00
    3949,   -1.428571e+02,    1.011905e+02,    5.000000e+00
    3950,   -1.369048e+02,    9.523810e+01,    5.000000e+00
    3951,   -1.309524e+02,    1.011905e+02,    5.000000e+00
    3952,   -1.250000e+02,    9.523810e+01,    5.000000e+00
    3953,   -1.190476e+02,    1.011905e+02,    5.000000e+00
    3954,   -1.130952e+02,    9.523810e+01,    5.000000e+00
    3955,   -1.071429e+02,    1.011905e+02,    5.000000e+00
    3956,   -1.011905e+02,    9.523810e+01,    5.000000e+00
    3957,   -9.523810e+01,    1.011905e+02,    5.000000e+00
    3958,   -8.928571e+01,    9.523810e+01,    5.000000e+00
    3959,   -8.333333e+01,    1.011905e+02,    5.000000e+00
    3960,   -7.738095e+01,    9.523810e+01,    5.000000e+00
    3961,   -7.142857e+01,    1.011905e+02,    5.000000e+00
    3962,   -6.547619e+01,    9.523810e+01,    5.000000e+00
    3963,   -5.952381e+01,    1.011905e+02,    5.000000e+00
    3964,   -5.357143e+01,    9.523810e+01,    5.000000e+00
    3965,   -4.761905e+01,    1.011905e+02,    5.000000e+00
    3966,   -4.166667e+01,    9.523810e+01,    5.000000e+00
    3967,   -3.571429e+01,    1.011905e+02,    5.000000e+00
    3968,   -2.976190e+01,    9.523810e+01,    5.000000e+00
    3969,   -2.380952e+01,    1.011905e+02,    5.000000e+00
    3970,   -1.785714e+01,    9.523810e+01,    5.000000e+00
    3971,   -1.190476e+01,    1.011905e+02,    5.000000e+00
    3972,   -5.952381e+00,    9.523810e+01,    5.000000e+00
    3973,   -2.440476e+02,    8.333333e+01,    5.000000e+00
    3974,   -2.380952e+02,    8.928571e+01,    5.000000e+00
    3975,   -2.321429e+02,    8.333333e+01,    5.000000e+00
    3976,   -2.261905e+02,    8.928571e+01,    5.000000e+00
    3977,   -2.202381e+02,    8.333333e+01,    5.000000e+00
    3978,   -2.142857e+02,    8.928571e+01,    5.000000e+00
    3979,   -2.083333e+02,    8.333333e+01,    5.000000e+00
    3980,   -2.023810e+02,    8.928571e+01,    5.000000e+00
    3981,   -1.964286e+02,    8.333333e+01,    5.000000e+00
    3982,   -1.904762e+02,    8.928571e+01,    5.000000e+00
    3983,   -1.845238e+02,    8.333333e+01,    5.000000e+00
    3984,   -1.785714e+02,    8.928571e+01,    5.000000e+00
    3985,   -1.726190e+02,    8.333333e+01,    5.000000e+00
    3986,   -1.666667e+02,    8.928571e+01,    5.000000e+00
    3987,   -1.607143e+02,    8.333333e+01,    5.000000e+00
    3988,   -1.547619e+02,    8.928571e+01,    5.000000e+00
    3989,   -1.488095e+02,    8.333333e+01,    5.000000e+00
    3990,   -1.428571e+02,    8.928571e+01,    5.000000e+00
    3991,   -1.369048e+02,    8.333333e+01,    5.000000e+00
    3992,   -1.309524e+02,    8.928571e+01,    5.000000e+00
    3993,   -1.250000e+02,    8.333333e+01,    5.000000e+00
    3994,   -1.190476e+02,    8.928571e+01,    5.000000e+00
    3995,   -1.130952e+02,    8.333333e+01,    5.000000e+00
    3996,   -1.071429e+02,    8.928571e+01,    5.000000e+00
    3997,   -1.011905e+02,    8.333333e+01,    5.000000e+00
    3998,   -9.523810e+01,    8.928571e+01,    5.000000e+00
    3999,   -8.928571e+01,    8.333333e+01,    5.000000e+00
    4000,   -8.333333e+01,    8.928571e+01,    5.000000e+00
    4001,   -7.738095e+01,    8.333333e+01,    5.000000e+00
    4002,   -7.142857e+01,    8.928571e+01,    5.000000e+00
    4003,   -6.547619e+01,    8.333333e+01,    5.000000e+00
    4004,   -5.952381e+01,    8.928571e+01,    5.000000e+00
    4005,   -5.357143e+01,    8.333333e+01,    5.000000e+00
    4006,   -4.761905e+01,    8.928571e+01,    5.000000e+00
    4007,   -4.166667e+01,    8.333333e+01,    5.000000e+00
    4008,   -3.571429e+01,    8.928571e+01,    5.000000e+00
    4009,   -2.976190e+01,    8.333333e+01,    5.000000e+00
    4010,   -2.380952e+01,    8.928571e+01,    5.000000e+00
    4011,   -1.785714e+01,    8.333333e+01,    5.000000e+00
    4012,   -1.190476e+01,    8.928571e+01,    5.000000e+00
    4013,   -5.952381e+00,    8.333333e+01,    5.000000e+00
    4014,   -2.440476e+02,    7.142857e+01,    5.000000e+00
    4015,   -2.380952e+02,    7.738095e+01,    5.000000e+00
    4016,   -2.321429e+02,    7.142857e+01,    5.000000e+00
    4017,   -2.261905e+02,    7.738095e+01,    5.000000e+00
    4018,   -2.202381e+02,    7.142857e+01,    5.000000e+00
    4019,   -2.142857e+02,    7.738095e+01,    5.000000e+00
    4020,   -2.083333e+02,    7.142857e+01,    5.000000e+00
    4021,   -2.023810e+02,    7.738095e+01,    5.000000e+00
    4022,   -1.964286e+02,    7.142857e+01,    5.000000e+00
    4023,   -1.904762e+02,    7.738095e+01,    5.000000e+00
    4024,   -1.845238e+02,    7.142857e+01,    5.000000e+00
    4025,   -1.785714e+02,    7.738095e+01,    5.000000e+00
    4026,   -1.726190e+02,    7.142857e+01,    5.000000e+00
    4027,   -1.666667e+02,    7.738095e+01,    5.000000e+00
    4028,   -1.607143e+02,    7.142857e+01,    5.000000e+00
    4029,   -1.547619e+02,    7.738095e+01,    5.000000e+00
    4030,   -1.488095e+02,    7.142857e+01,    5.000000e+00
    4031,   -1.428571e+02,    7.738095e+01,    5.000000e+00
    4032,   -1.369048e+02,    7.142857e+01,    5.000000e+00
    4033,   -1.309524e+02,    7.738095e+01,    5.000000e+00
    4034,   -1.250000e+02,    7.142857e+01,    5.000000e+00
    4035,   -1.190476e+02,    7.738095e+01,    5.000000e+00
    4036,   -1.130952e+02,    7.142857e+01,    5.000000e+00
    4037,   -1.071429e+02,    7.738095e+01,    5.000000e+00
    4038,   -1.011905e+02,    7.142857e+01,    5.000000e+00
    4039,   -9.523810e+01,    7.738095e+01,    5.000000e+00
    4040,   -8.928571e+01,    7.142857e+01,    5.000000e+00
    4041,   -8.333333e+01,    7.738095e+01,    5.000000e+00
    4042,   -7.738095e+01,    7.142857e+01,    5.000000e+00
    4043,   -7.142857e+01,    7.738095e+01,    5.000000e+00
    4044,   -6.547619e+01,    7.142857e+01,    5.000000e+00
    4045,   -5.952381e+01,    7.738095e+01,    5.000000e+00
    4046,   -5.357143e+01,    7.142857e+01,    5.000000e+00
    4047,   -4.761905e+01,    7.738095e+01,    5.000000e+00
    4048,   -4.166667e+01,    7.142857e+01,    5.000000e+00
    4049,   -3.571429e+01,    7.738095e+01,    5.000000e+00
    4050,   -2.976190e+01,    7.142857e+01,    5.000000e+00
    4051,   -2.380952e+01,    7.738095e+01,    5.000000e+00
    4052,   -1.785714e+01,    7.142857e+01,    5.000000e+00
    4053,   -1.190476e+01,    7.738095e+01,    5.000000e+00
    4054,   -5.952381e+00,    7.142857e+01,    5.000000e+00
    4055,   -2.440476e+02,    5.952381e+01,    5.000000e+00
    4056,   -2.380952e+02,    6.547619e+01,    5.000000e+00
    4057,   -2.321429e+02,    5.952381e+01,    5.000000e+00
    4058,   -2.261905e+02,    6.547619e+01,    5.000000e+00
    4059,   -2.202381e+02,    5.952381e+01,    5.000000e+00
    4060,   -2.142857e+02,    6.547619e+01,    5.000000e+00
    4061,   -2.083333e+02,    5.952381e+01,    5.000000e+00
    4062,   -2.023810e+02,    6.547619e+01,    5.000000e+00
    4063,   -1.964286e+02,    5.952381e+01,    5.000000e+00
    4064,   -1.904762e+02,    6.547619e+01,    5.000000e+00
    4065,   -1.845238e+02,    5.952381e+01,    5.000000e+00
    4066,   -1.785714e+02,    6.547619e+01,    5.000000e+00
    4067,   -1.726190e+02,    5.952381e+01,    5.000000e+00
    4068,   -1.666667e+02,    6.547619e+01,    5.000000e+00
    4069,   -1.607143e+02,    5.952381e+01,    5.000000e+00
    4070,   -1.547619e+02,    6.547619e+01,    5.000000e+00
    4071,   -1.488095e+02,    5.952381e+01,    5.000000e+00
    4072,   -1.428571e+02,    6.547619e+01,    5.000000e+00
    4073,   -1.369048e+02,    5.952381e+01,    5.000000e+00
    4074,   -1.309524e+02,    6.547619e+01,    5.000000e+00
    4075,   -1.250000e+02,    5.952381e+01,    5.000000e+00
    4076,   -1.190476e+02,    6.547619e+01,    5.000000e+00
    4077,   -1.130952e+02,    5.952381e+01,    5.000000e+00
    4078,   -1.071429e+02,    6.547619e+01,    5.000000e+00
    4079,   -1.011905e+02,    5.952381e+01,    5.000000e+00
    4080,   -9.523810e+01,    6.547619e+01,    5.000000e+00
    4081,   -8.928571e+01,    5.952381e+01,    5.000000e+00
    4082,   -8.333333e+01,    6.547619e+01,    5.000000e+00
    4083,   -7.738095e+01,    5.952381e+01,    5.000000e+00
    4084,   -7.142857e+01,    6.547619e+01,    5.000000e+00
    4085,   -6.547619e+01,    5.952381e+01,    5.000000e+00
    4086,   -5.952381e+01,    6.547619e+01,    5.000000e+00
    4087,   -5.357143e+01,    5.952381e+01,    5.000000e+00
    4088,   -4.761905e+01,    6.547619e+01,    5.000000e+00
    4089,   -4.166667e+01,    5.952381e+01,    5.000000e+00
    4090,   -3.571429e+01,    6.547619e+01,    5.000000e+00
    4091,   -2.976190e+01,    5.952381e+01,    5.000000e+00
    4092,   -2.380952e+01,    6.547619e+01,    5.000000e+00
    4093,   -1.785714e+01,    5.952381e+01,    5.000000e+00
    4094,   -1.190476e+01,    6.547619e+01,    5.000000e+00
    4095,   -5.952381e+00,    5.952381e+01,    5.000000e+00
    4096,   -2.440476e+02,    4.761905e+01,    5.000000e+00
    4097,   -2.380952e+02,    5.357143e+01,    5.000000e+00
    4098,   -2.321429e+02,    4.761905e+01,    5.000000e+00
    4099,   -2.261905e+02,    5.357143e+01,    5.000000e+00
    4100,   -2.202381e+02,    4.761905e+01,    5.000000e+00
    4101,   -2.142857e+02,    5.357143e+01,    5.000000e+00
    4102,   -2.083333e+02,    4.761905e+01,    5.000000e+00
    4103,   -2.023810e+02,    5.357143e+01,    5.000000e+00
    4104,   -1.964286e+02,    4.761905e+01,    5.000000e+00
    4105,   -1.904762e+02,    5.357143e+01,    5.000000e+00
    4106,   -1.845238e+02,    4.761905e+01,    5.000000e+00
    4107,   -1.785714e+02,    5.357143e+01,    5.000000e+00
    4108,   -1.726190e+02,    4.761905e+01,    5.000000e+00
    4109,   -1.666667e+02,    5.357143e+01,    5.000000e+00
    4110,   -1.607143e+02,    4.761905e+01,    5.000000e+00
    4111,   -1.547619e+02,    5.357143e+01,    5.000000e+00
    4112,   -1.488095e+02,    4.761905e+01,    5.000000e+00
    4113,   -1.428571e+02,    5.357143e+01,    5.000000e+00
    4114,   -1.369048e+02,    4.761905e+01,    5.000000e+00
    4115,   -1.309524e+02,    5.357143e+01,    5.000000e+00
    4116,   -1.250000e+02,    4.761905e+01,    5.000000e+00
    4117,   -1.190476e+02,    5.357143e+01,    5.000000e+00
    4118,   -1.130952e+02,    4.761905e+01,    5.000000e+00
    4119,   -1.071429e+02,    5.357143e+01,    5.000000e+00
    4120,   -1.011905e+02,    4.761905e+01,    5.000000e+00
    4121,   -9.523810e+01,    5.357143e+01,    5.000000e+00
    4122,   -8.928571e+01,    4.761905e+01,    5.000000e+00
    4123,   -8.333333e+01,    5.357143e+01,    5.000000e+00
    4124,   -7.738095e+01,    4.761905e+01,    5.000000e+00
    4125,   -7.142857e+01,    5.357143e+01,    5.000000e+00
    4126,   -6.547619e+01,    4.761905e+01,    5.000000e+00
    4127,   -5.952381e+01,    5.357143e+01,    5.000000e+00
    4128,   -5.357143e+01,    4.761905e+01,    5.000000e+00
    4129,   -4.761905e+01,    5.357143e+01,    5.000000e+00
    4130,   -4.166667e+01,    4.761905e+01,    5.000000e+00
    4131,   -3.571429e+01,    5.357143e+01,    5.000000e+00
    4132,   -2.976190e+01,    4.761905e+01,    5.000000e+00
    4133,   -2.380952e+01,    5.357143e+01,    5.000000e+00
    4134,   -1.785714e+01,    4.761905e+01,    5.000000e+00
    4135,   -1.190476e+01,    5.357143e+01,    5.000000e+00
    4136,   -5.952381e+00,    4.761905e+01,    5.000000e+00
    4137,   -2.440476e+02,    3.571429e+01,    5.000000e+00
    4138,   -2.380952e+02,    4.166667e+01,    5.000000e+00
    4139,   -2.321429e+02,    3.571429e+01,    5.000000e+00
    4140,   -2.261905e+02,    4.166667e+01,    5.000000e+00
    4141,   -2.202381e+02,    3.571429e+01,    5.000000e+00
    4142,   -2.142857e+02,    4.166667e+01,    5.000000e+00
    4143,   -2.083333e+02,    3.571429e+01,    5.000000e+00
    4144,   -2.023810e+02,    4.166667e+01,    5.000000e+00
    4145,   -1.964286e+02,    3.571429e+01,    5.000000e+00
    4146,   -1.904762e+02,    4.166667e+01,    5.000000e+00
    4147,   -1.845238e+02,    3.571429e+01,    5.000000e+00
    4148,   -1.785714e+02,    4.166667e+01,    5.000000e+00
    4149,   -1.726190e+02,    3.571429e+01,    5.000000e+00
    4150,   -1.666667e+02,    4.166667e+01,    5.000000e+00
    4151,   -1.607143e+02,    3.571429e+01,    5.000000e+00
    4152,   -1.547619e+02,    4.166667e+01,    5.000000e+00
    4153,   -1.488095e+02,    3.571429e+01,    5.000000e+00
    4154,   -1.428571e+02,    4.166667e+01,    5.000000e+00
    4155,   -1.369048e+02,    3.571429e+01,    5.000000e+00
    4156,   -1.309524e+02,    4.166667e+01,    5.000000e+00
    4157,   -1.250000e+02,    3.571429e+01,    5.000000e+00
    4158,   -1.190476e+02,    4.166667e+01,    5.000000e+00
    4159,   -1.130952e+02,    3.571429e+01,    5.000000e+00
    4160,   -1.071429e+02,    4.166667e+01,    5.000000e+00
    4161,   -1.011905e+02,    3.571429e+01,    5.000000e+00
    4162,   -9.523810e+01,    4.166667e+01,    5.000000e+00
    4163,   -8.928571e+01,    3.571429e+01,    5.000000e+00
    4164,   -8.333333e+01,    4.166667e+01,    5.000000e+00
    4165,   -7.738095e+01,    3.571429e+01,    5.000000e+00
    4166,   -7.142857e+01,    4.166667e+01,    5.000000e+00
    4167,   -6.547619e+01,    3.571429e+01,    5.000000e+00
    4168,   -5.952381e+01,    4.166667e+01,    5.000000e+00
    4169,   -5.357143e+01,    3.571429e+01,    5.000000e+00
    4170,   -4.761905e+01,    4.166667e+01,    5.000000e+00
    4171,   -4.166667e+01,    3.571429e+01,    5.000000e+00
    4172,   -3.571429e+01,    4.166667e+01,    5.000000e+00
    4173,   -2.976190e+01,    3.571429e+01,    5.000000e+00
    4174,   -2.380952e+01,    4.166667e+01,    5.000000e+00
    4175,   -1.785714e+01,    3.571429e+01,    5.000000e+00
    4176,   -1.190476e+01,    4.166667e+01,    5.000000e+00
    4177,   -5.952381e+00,    3.571429e+01,    5.000000e+00
    4178,   -2.440476e+02,    2.380952e+01,    5.000000e+00
    4179,   -2.380952e+02,    2.976190e+01,    5.000000e+00
    4180,   -2.321429e+02,    2.380952e+01,    5.000000e+00
    4181,   -2.261905e+02,    2.976190e+01,    5.000000e+00
    4182,   -2.202381e+02,    2.380952e+01,    5.000000e+00
    4183,   -2.142857e+02,    2.976190e+01,    5.000000e+00
    4184,   -2.083333e+02,    2.380952e+01,    5.000000e+00
    4185,   -2.023810e+02,    2.976190e+01,    5.000000e+00
    4186,   -1.964286e+02,    2.380952e+01,    5.000000e+00
    4187,   -1.904762e+02,    2.976190e+01,    5.000000e+00
    4188,   -1.845238e+02,    2.380952e+01,    5.000000e+00
    4189,   -1.785714e+02,    2.976190e+01,    5.000000e+00
    4190,   -1.726190e+02,    2.380952e+01,    5.000000e+00
    4191,   -1.666667e+02,    2.976190e+01,    5.000000e+00
    4192,   -1.607143e+02,    2.380952e+01,    5.000000e+00
    4193,   -1.547619e+02,    2.976190e+01,    5.000000e+00
    4194,   -1.488095e+02,    2.380952e+01,    5.000000e+00
    4195,   -1.428571e+02,    2.976190e+01,    5.000000e+00
    4196,   -1.369048e+02,    2.380952e+01,    5.000000e+00
    4197,   -1.309524e+02,    2.976190e+01,    5.000000e+00
    4198,   -1.250000e+02,    2.380952e+01,    5.000000e+00
    4199,   -1.190476e+02,    2.976190e+01,    5.000000e+00
    4200,   -1.130952e+02,    2.380952e+01,    5.000000e+00
    4201,   -1.071429e+02,    2.976190e+01,    5.000000e+00
    4202,   -1.011905e+02,    2.380952e+01,    5.000000e+00
    4203,   -9.523810e+01,    2.976190e+01,    5.000000e+00
    4204,   -8.928571e+01,    2.380952e+01,    5.000000e+00
    4205,   -8.333333e+01,    2.976190e+01,    5.000000e+00
    4206,   -7.738095e+01,    2.380952e+01,    5.000000e+00
    4207,   -7.142857e+01,    2.976190e+01,    5.000000e+00
    4208,   -6.547619e+01,    2.380952e+01,    5.000000e+00
    4209,   -5.952381e+01,    2.976190e+01,    5.000000e+00
    4210,   -5.357143e+01,    2.380952e+01,    5.000000e+00
    4211,   -4.761905e+01,    2.976190e+01,    5.000000e+00
    4212,   -4.166667e+01,    2.380952e+01,    5.000000e+00
    4213,   -3.571429e+01,    2.976190e+01,    5.000000e+00
    4214,   -2.976190e+01,    2.380952e+01,    5.000000e+00
    4215,   -2.380952e+01,    2.976190e+01,    5.000000e+00
    4216,   -1.785714e+01,    2.380952e+01,    5.000000e+00
    4217,   -1.190476e+01,    2.976190e+01,    5.000000e+00
    4218,   -5.952381e+00,    2.380952e+01,    5.000000e+00
    4219,   -2.440476e+02,    1.190476e+01,    5.000000e+00
    4220,   -2.380952e+02,    1.785714e+01,    5.000000e+00
    4221,   -2.321429e+02,    1.190476e+01,    5.000000e+00
    4222,   -2.261905e+02,    1.785714e+01,    5.000000e+00
    4223,   -2.202381e+02,    1.190476e+01,    5.000000e+00
    4224,   -2.142857e+02,    1.785714e+01,    5.000000e+00
    4225,   -2.083333e+02,    1.190476e+01,    5.000000e+00
    4226,   -2.023810e+02,    1.785714e+01,    5.000000e+00
    4227,   -1.964286e+02,    1.190476e+01,    5.000000e+00
    4228,   -1.904762e+02,    1.785714e+01,    5.000000e+00
    4229,   -1.845238e+02,    1.190476e+01,    5.000000e+00
    4230,   -1.785714e+02,    1.785714e+01,    5.000000e+00
    4231,   -1.726190e+02,    1.190476e+01,    5.000000e+00
    4232,   -1.666667e+02,    1.785714e+01,    5.000000e+00
    4233,   -1.607143e+02,    1.190476e+01,    5.000000e+00
    4234,   -1.547619e+02,    1.785714e+01,    5.000000e+00
    4235,   -1.488095e+02,    1.190476e+01,    5.000000e+00
    4236,   -1.428571e+02,    1.785714e+01,    5.000000e+00
    4237,   -1.369048e+02,    1.190476e+01,    5.000000e+00
    4238,   -1.309524e+02,    1.785714e+01,    5.000000e+00
    4239,   -1.250000e+02,    1.190476e+01,    5.000000e+00
    4240,   -1.190476e+02,    1.785714e+01,    5.000000e+00
    4241,   -1.130952e+02,    1.190476e+01,    5.000000e+00
    4242,   -1.071429e+02,    1.785714e+01,    5.000000e+00
    4243,   -1.011905e+02,    1.190476e+01,    5.000000e+00
    4244,   -9.523810e+01,    1.785714e+01,    5.000000e+00
    4245,   -8.928571e+01,    1.190476e+01,    5.000000e+00
    4246,   -8.333333e+01,    1.785714e+01,    5.000000e+00
    4247,   -7.738095e+01,    1.190476e+01,    5.000000e+00
    4248,   -7.142857e+01,    1.785714e+01,    5.000000e+00
    4249,   -6.547619e+01,    1.190476e+01,    5.000000e+00
    4250,   -5.952381e+01,    1.785714e+01,    5.000000e+00
    4251,   -5.357143e+01,    1.190476e+01,    5.000000e+00
    4252,   -4.761905e+01,    1.785714e+01,    5.000000e+00
    4253,   -4.166667e+01,    1.190476e+01,    5.000000e+00
    4254,   -3.571429e+01,    1.785714e+01,    5.000000e+00
    4255,   -2.976190e+01,    1.190476e+01,    5.000000e+00
    4256,   -2.380952e+01,    1.785714e+01,    5.000000e+00
    4257,   -1.785714e+01,    1.190476e+01,    5.000000e+00
    4258,   -1.190476e+01,    1.785714e+01,    5.000000e+00
    4259,   -5.952381e+00,    1.190476e+01,    5.000000e+00
    4260,   -2.380952e+02,    5.952381e+00,    5.000000e+00
    4261,   -2.261905e+02,    5.952381e+00,    5.000000e+00
    4262,   -2.142857e+02,    5.952381e+00,    5.000000e+00
    4263,   -2.023810e+02,    5.952381e+00,    5.000000e+00
    4264,   -1.904762e+02,    5.952381e+00,    5.000000e+00
    4265,   -1.785714e+02,    5.952381e+00,    5.000000e+00
    4266,   -1.666667e+02,    5.952381e+00,    5.000000e+00
    4267,   -1.547619e+02,    5.952381e+00,    5.000000e+00
    4268,   -1.428571e+02,    5.952381e+00,    5.000000e+00
    4269,   -1.309524e+02,    5.952381e+00,    5.000000e+00
    4270,   -1.190476e+02,    5.952381e+00,    5.000000e+00
    4271,   -1.071429e+02,    5.952381e+00,    5.000000e+00
    4272,   -9.523810e+01,    5.952381e+00,    5.000000e+00
    4273,   -8.333333e+01,    5.952381e+00,    5.000000e+00
    4274,   -7.142857e+01,    5.952381e+00,    5.000000e+00
    4275,   -5.952381e+01,    5.952381e+00,    5.000000e+00
    4276,   -4.761905e+01,    5.952381e+00,    5.000000e+00
    4277,   -3.571429e+01,    5.952381e+00,    5.000000e+00
    4278,   -2.380952e+01,    5.952381e+00,    5.000000e+00
    4279,   -1.190476e+01,    5.952381e+00,    5.000000e+00
    4280,    0.000000e+00,    2.500000e+02,    0.000000e+00
    4281,    0.000000e+00,    5.952381e+00,   -5.000000e+00
    4282,    0.000000e+00,    1.785714e+01,   -5.000000e+00
    4283,    0.000000e+00,    2.976190e+01,   -5.000000e+00
    4284,    0.000000e+00,    4.166667e+01,   -5.000000e+00
    4285,    0.000000e+00,    5.357143e+01,   -5.000000e+00
    4286,    0.000000e+00,    6.547619e+01,   -5.000000e+00
    4287,    0.000000e+00,    7.738095e+01,   -5.000000e+00
    4288,    0.000000e+00,    8.928571e+01,   -5.000000e+00
    4289,    0.000000e+00,    1.011905e+02,   -5.000000e+00
    4290,    0.000000e+00,    1.130952e+02,   -5.000000e+00
    4291,    0.000000e+00,    1.250000e+02,   -5.000000e+00
    4292,    0.000000e+00,    1.369048e+02,   -5.000000e+00
    4293,    0.000000e+00,    1.488095e+02,   -5.000000e+00
    4294,    0.000000e+00,    1.607143e+02,   -5.000000e+00
    4295,    0.000000e+00,    1.726190e+02,   -5.000000e+00
    4296,    0.000000e+00,    1.845238e+02,   -5.000000e+00
    4297,    0.000000e+00,    1.964286e+02,   -5.000000e+00
    4298,    0.000000e+00,    2.083333e+02,   -5.000000e+00
    4299,    0.000000e+00,    2.202381e+02,   -5.000000e+00
    4300,    0.000000e+00,    2.321429e+02,   -5.000000e+00
    4301,    0.000000e+00,    2.440476e+02,   -5.000000e+00
    4302,    0.000000e+00,    1.190476e+01,    0.000000e+00
    4303,    0.000000e+00,    2.380952e+01,    0.000000e+00
    4304,    0.000000e+00,    3.571429e+01,    0.000000e+00
    4305,    0.000000e+00,    4.761905e+01,    0.000000e+00
    4306,    0.000000e+00,    5.952381e+01,    0.000000e+00
    4307,    0.000000e+00,    7.142857e+01,    0.000000e+00
    4308,    0.000000e+00,    8.333333e+01,    0.000000e+00
    4309,    0.000000e+00,    9.523810e+01,    0.000000e+00
    4310,    0.000000e+00,    1.071429e+02,    0.000000e+00
    4311,    0.000000e+00,    1.190476e+02,    0.000000e+00
    4312,    0.000000e+00,    1.309524e+02,    0.000000e+00
    4313,    0.000000e+00,    1.428571e+02,    0.000000e+00
    4314,    0.000000e+00,    1.547619e+02,    0.000000e+00
    4315,    0.000000e+00,    1.666667e+02,    0.000000e+00
    4316,    0.000000e+00,    1.785714e+02,    0.000000e+00
    4317,    0.000000e+00,    1.904762e+02,    0.000000e+00
    4318,    0.000000e+00,    2.023810e+02,    0.000000e+00
    4319,    0.000000e+00,    2.142857e+02,    0.000000e+00
    4320,    0.000000e+00,    2.261905e+02,    0.000000e+00
    4321,    0.000000e+00,    2.380952e+02,    0.000000e+00
    4322,   -2.440476e+02,    2.500000e+02,   -5.000000e+00
    4323,   -2.321429e+02,    2.500000e+02,   -5.000000e+00
    4324,   -2.202381e+02,    2.500000e+02,   -5.000000e+00
    4325,   -2.083333e+02,    2.500000e+02,   -5.000000e+00
    4326,   -1.964286e+02,    2.500000e+02,   -5.000000e+00
    4327,   -1.845238e+02,    2.500000e+02,   -5.000000e+00
    4328,   -1.726190e+02,    2.500000e+02,   -5.000000e+00
    4329,   -1.607143e+02,    2.500000e+02,   -5.000000e+00
    4330,   -1.488095e+02,    2.500000e+02,   -5.000000e+00
    4331,   -1.369048e+02,    2.500000e+02,   -5.000000e+00
    4332,   -1.250000e+02,    2.500000e+02,   -5.000000e+00
    4333,   -1.130952e+02,    2.500000e+02,   -5.000000e+00
    4334,   -1.011905e+02,    2.500000e+02,   -5.000000e+00
    4335,   -8.928571e+01,    2.500000e+02,   -5.000000e+00
    4336,   -7.738095e+01,    2.500000e+02,   -5.000000e+00
    4337,   -6.547619e+01,    2.500000e+02,   -5.000000e+00
    4338,   -5.357143e+01,    2.500000e+02,   -5.000000e+00
    4339,   -4.166667e+01,    2.500000e+02,   -5.000000e+00
    4340,   -2.976190e+01,    2.500000e+02,   -5.000000e+00
    4341,   -1.785714e+01,    2.500000e+02,   -5.000000e+00
    4342,   -5.952381e+00,    2.500000e+02,   -5.000000e+00
    4343,   -2.500000e+02,    2.500000e+02,    0.000000e+00
    4344,   -1.190476e+01,    2.500000e+02,    0.000000e+00
    4345,   -2.380952e+01,    2.500000e+02,    0.000000e+00
    4346,   -3.571429e+01,    2.500000e+02,    0.000000e+00
    4347,   -4.761905e+01,    2.500000e+02,    0.000000e+00
    4348,   -5.952381e+01,    2.500000e+02,    0.000000e+00
    4349,   -7.142857e+01,    2.500000e+02,    0.000000e+00
    4350,   -8.333333e+01,    2.500000e+02,    0.000000e+00
    4351,   -9.523810e+01,    2.500000e+02,    0.000000e+00
    4352,   -1.071429e+02,    2.500000e+02,    0.000000e+00
    4353,   -1.190476e+02,    2.500000e+02,    0.000000e+00
    4354,   -1.309524e+02,    2.500000e+02,    0.000000e+00
    4355,   -1.428571e+02,    2.500000e+02,    0.000000e+00
    4356,   -1.547619e+02,    2.500000e+02,    0.000000e+00
    4357,   -1.666667e+02,    2.500000e+02,    0.000000e+00
    4358,   -1.785714e+02,    2.500000e+02,    0.000000e+00
    4359,   -1.904762e+02,    2.500000e+02,    0.000000e+00
    4360,   -2.023810e+02,    2.500000e+02,    0.000000e+00
    4361,   -2.142857e+02,    2.500000e+02,    0.000000e+00
    4362,   -2.261905e+02,    2.500000e+02,    0.000000e+00
    4363,   -2.380952e+02,    2.500000e+02,    0.000000e+00
    4364,   -2.500000e+02,    5.952381e+00,   -5.000000e+00
    4365,   -2.500000e+02,    1.785714e+01,   -5.000000e+00
    4366,   -2.500000e+02,    2.976190e+01,   -5.000000e+00
    4367,   -2.500000e+02,    4.166667e+01,   -5.000000e+00
    4368,   -2.500000e+02,    5.357143e+01,   -5.000000e+00
    4369,   -2.500000e+02,    6.547619e+01,   -5.000000e+00
    4370,   -2.500000e+02,    7.738095e+01,   -5.000000e+00
    4371,   -2.500000e+02,    8.928571e+01,   -5.000000e+00
    4372,   -2.500000e+02,    1.011905e+02,   -5.000000e+00
    4373,   -2.500000e+02,    1.130952e+02,   -5.000000e+00
    4374,   -2.500000e+02,    1.250000e+02,   -5.000000e+00
    4375,   -2.500000e+02,    1.369048e+02,   -5.000000e+00
    4376,   -2.500000e+02,    1.488095e+02,   -5.000000e+00
    4377,   -2.500000e+02,    1.607143e+02,   -5.000000e+00
    4378,   -2.500000e+02,    1.726190e+02,   -5.000000e+00
    4379,   -2.500000e+02,    1.845238e+02,   -5.000000e+00
    4380,   -2.500000e+02,    1.964286e+02,   -5.000000e+00
    4381,   -2.500000e+02,    2.083333e+02,   -5.000000e+00
    4382,   -2.500000e+02,    2.202381e+02,   -5.000000e+00
    4383,   -2.500000e+02,    2.321429e+02,   -5.000000e+00
    4384,   -2.500000e+02,    2.440476e+02,   -5.000000e+00
    4385,   -1.190476e+01,    5.952381e+00,   -5.000000e+00
    4386,   -5.952381e+00,    1.190476e+01,   -5.000000e+00
    4387,   -2.380952e+01,    5.952381e+00,   -5.000000e+00
    4388,   -1.785714e+01,    1.190476e+01,   -5.000000e+00
    4389,   -3.571429e+01,    5.952381e+00,   -5.000000e+00
    4390,   -2.976190e+01,    1.190476e+01,   -5.000000e+00
    4391,   -4.761905e+01,    5.952381e+00,   -5.000000e+00
    4392,   -4.166667e+01,    1.190476e+01,   -5.000000e+00
    4393,   -5.952381e+01,    5.952381e+00,   -5.000000e+00
    4394,   -5.357143e+01,    1.190476e+01,   -5.000000e+00
    4395,   -7.142857e+01,    5.952381e+00,   -5.000000e+00
    4396,   -6.547619e+01,    1.190476e+01,   -5.000000e+00
    4397,   -8.333333e+01,    5.952381e+00,   -5.000000e+00
    4398,   -7.738095e+01,    1.190476e+01,   -5.000000e+00
    4399,   -9.523810e+01,    5.952381e+00,   -5.000000e+00
    4400,   -8.928571e+01,    1.190476e+01,   -5.000000e+00
    4401,   -1.071429e+02,    5.952381e+00,   -5.000000e+00
    4402,   -1.011905e+02,    1.190476e+01,   -5.000000e+00
    4403,   -1.190476e+02,    5.952381e+00,   -5.000000e+00
    4404,   -1.130952e+02,    1.190476e+01,   -5.000000e+00
    4405,   -1.309524e+02,    5.952381e+00,   -5.000000e+00
    4406,   -1.250000e+02,    1.190476e+01,   -5.000000e+00
    4407,   -1.428571e+02,    5.952381e+00,   -5.000000e+00
    4408,   -1.369048e+02,    1.190476e+01,   -5.000000e+00
    4409,   -1.547619e+02,    5.952381e+00,   -5.000000e+00
    4410,   -1.488095e+02,    1.190476e+01,   -5.000000e+00
    4411,   -1.666667e+02,    5.952381e+00,   -5.000000e+00
    4412,   -1.607143e+02,    1.190476e+01,   -5.000000e+00
    4413,   -1.785714e+02,    5.952381e+00,   -5.000000e+00
    4414,   -1.726190e+02,    1.190476e+01,   -5.000000e+00
    4415,   -1.904762e+02,    5.952381e+00,   -5.000000e+00
    4416,   -1.845238e+02,    1.190476e+01,   -5.000000e+00
    4417,   -2.023810e+02,    5.952381e+00,   -5.000000e+00
    4418,   -1.964286e+02,    1.190476e+01,   -5.000000e+00
    4419,   -2.142857e+02,    5.952381e+00,   -5.000000e+00
    4420,   -2.083333e+02,    1.190476e+01,   -5.000000e+00
    4421,   -2.261905e+02,    5.952381e+00,   -5.000000e+00
    4422,   -2.202381e+02,    1.190476e+01,   -5.000000e+00
    4423,   -2.380952e+02,    5.952381e+00,   -5.000000e+00
    4424,   -2.321429e+02,    1.190476e+01,   -5.000000e+00
    4425,   -2.440476e+02,    1.190476e+01,   -5.000000e+00
    4426,   -1.190476e+01,    1.785714e+01,   -5.000000e+00
    4427,   -5.952381e+00,    2.380952e+01,   -5.000000e+00
    4428,   -2.380952e+01,    1.785714e+01,   -5.000000e+00
    4429,   -1.785714e+01,    2.380952e+01,   -5.000000e+00
    4430,   -3.571429e+01,    1.785714e+01,   -5.000000e+00
    4431,   -2.976190e+01,    2.380952e+01,   -5.000000e+00
    4432,   -4.761905e+01,    1.785714e+01,   -5.000000e+00
    4433,   -4.166667e+01,    2.380952e+01,   -5.000000e+00
    4434,   -5.952381e+01,    1.785714e+01,   -5.000000e+00
    4435,   -5.357143e+01,    2.380952e+01,   -5.000000e+00
    4436,   -7.142857e+01,    1.785714e+01,   -5.000000e+00
    4437,   -6.547619e+01,    2.380952e+01,   -5.000000e+00
    4438,   -8.333333e+01,    1.785714e+01,   -5.000000e+00
    4439,   -7.738095e+01,    2.380952e+01,   -5.000000e+00
    4440,   -9.523810e+01,    1.785714e+01,   -5.000000e+00
    4441,   -8.928571e+01,    2.380952e+01,   -5.000000e+00
    4442,   -1.071429e+02,    1.785714e+01,   -5.000000e+00
    4443,   -1.011905e+02,    2.380952e+01,   -5.000000e+00
    4444,   -1.190476e+02,    1.785714e+01,   -5.000000e+00
    4445,   -1.130952e+02,    2.380952e+01,   -5.000000e+00
    4446,   -1.309524e+02,    1.785714e+01,   -5.000000e+00
    4447,   -1.250000e+02,    2.380952e+01,   -5.000000e+00
    4448,   -1.428571e+02,    1.785714e+01,   -5.000000e+00
    4449,   -1.369048e+02,    2.380952e+01,   -5.000000e+00
    4450,   -1.547619e+02,    1.785714e+01,   -5.000000e+00
    4451,   -1.488095e+02,    2.380952e+01,   -5.000000e+00
    4452,   -1.666667e+02,    1.785714e+01,   -5.000000e+00
    4453,   -1.607143e+02,    2.380952e+01,   -5.000000e+00
    4454,   -1.785714e+02,    1.785714e+01,   -5.000000e+00
    4455,   -1.726190e+02,    2.380952e+01,   -5.000000e+00
    4456,   -1.904762e+02,    1.785714e+01,   -5.000000e+00
    4457,   -1.845238e+02,    2.380952e+01,   -5.000000e+00
    4458,   -2.023810e+02,    1.785714e+01,   -5.000000e+00
    4459,   -1.964286e+02,    2.380952e+01,   -5.000000e+00
    4460,   -2.142857e+02,    1.785714e+01,   -5.000000e+00
    4461,   -2.083333e+02,    2.380952e+01,   -5.000000e+00
    4462,   -2.261905e+02,    1.785714e+01,   -5.000000e+00
    4463,   -2.202381e+02,    2.380952e+01,   -5.000000e+00
    4464,   -2.380952e+02,    1.785714e+01,   -5.000000e+00
    4465,   -2.321429e+02,    2.380952e+01,   -5.000000e+00
    4466,   -2.440476e+02,    2.380952e+01,   -5.000000e+00
    4467,   -1.190476e+01,    2.976190e+01,   -5.000000e+00
    4468,   -5.952381e+00,    3.571429e+01,   -5.000000e+00
    4469,   -2.380952e+01,    2.976190e+01,   -5.000000e+00
    4470,   -1.785714e+01,    3.571429e+01,   -5.000000e+00
    4471,   -3.571429e+01,    2.976190e+01,   -5.000000e+00
    4472,   -2.976190e+01,    3.571429e+01,   -5.000000e+00
    4473,   -4.761905e+01,    2.976190e+01,   -5.000000e+00
    4474,   -4.166667e+01,    3.571429e+01,   -5.000000e+00
    4475,   -5.952381e+01,    2.976190e+01,   -5.000000e+00
    4476,   -5.357143e+01,    3.571429e+01,   -5.000000e+00
    4477,   -7.142857e+01,    2.976190e+01,   -5.000000e+00
    4478,   -6.547619e+01,    3.571429e+01,   -5.000000e+00
    4479,   -8.333333e+01,    2.976190e+01,   -5.000000e+00
    4480,   -7.738095e+01,    3.571429e+01,   -5.000000e+00
    4481,   -9.523810e+01,    2.976190e+01,   -5.000000e+00
    4482,   -8.928571e+01,    3.571429e+01,   -5.000000e+00
    4483,   -1.071429e+02,    2.976190e+01,   -5.000000e+00
    4484,   -1.011905e+02,    3.571429e+01,   -5.000000e+00
    4485,   -1.190476e+02,    2.976190e+01,   -5.000000e+00
    4486,   -1.130952e+02,    3.571429e+01,   -5.000000e+00
    4487,   -1.309524e+02,    2.976190e+01,   -5.000000e+00
    4488,   -1.250000e+02,    3.571429e+01,   -5.000000e+00
    4489,   -1.428571e+02,    2.976190e+01,   -5.000000e+00
    4490,   -1.369048e+02,    3.571429e+01,   -5.000000e+00
    4491,   -1.547619e+02,    2.976190e+01,   -5.000000e+00
    4492,   -1.488095e+02,    3.571429e+01,   -5.000000e+00
    4493,   -1.666667e+02,    2.976190e+01,   -5.000000e+00
    4494,   -1.607143e+02,    3.571429e+01,   -5.000000e+00
    4495,   -1.785714e+02,    2.976190e+01,   -5.000000e+00
    4496,   -1.726190e+02,    3.571429e+01,   -5.000000e+00
    4497,   -1.904762e+02,    2.976190e+01,   -5.000000e+00
    4498,   -1.845238e+02,    3.571429e+01,   -5.000000e+00
    4499,   -2.023810e+02,    2.976190e+01,   -5.000000e+00
    4500,   -1.964286e+02,    3.571429e+01,   -5.000000e+00
    4501,   -2.142857e+02,    2.976190e+01,   -5.000000e+00
    4502,   -2.083333e+02,    3.571429e+01,   -5.000000e+00
    4503,   -2.261905e+02,    2.976190e+01,   -5.000000e+00
    4504,   -2.202381e+02,    3.571429e+01,   -5.000000e+00
    4505,   -2.380952e+02,    2.976190e+01,   -5.000000e+00
    4506,   -2.321429e+02,    3.571429e+01,   -5.000000e+00
    4507,   -2.440476e+02,    3.571429e+01,   -5.000000e+00
    4508,   -1.190476e+01,    4.166667e+01,   -5.000000e+00
    4509,   -5.952381e+00,    4.761905e+01,   -5.000000e+00
    4510,   -2.380952e+01,    4.166667e+01,   -5.000000e+00
    4511,   -1.785714e+01,    4.761905e+01,   -5.000000e+00
    4512,   -3.571429e+01,    4.166667e+01,   -5.000000e+00
    4513,   -2.976190e+01,    4.761905e+01,   -5.000000e+00
    4514,   -4.761905e+01,    4.166667e+01,   -5.000000e+00
    4515,   -4.166667e+01,    4.761905e+01,   -5.000000e+00
    4516,   -5.952381e+01,    4.166667e+01,   -5.000000e+00
    4517,   -5.357143e+01,    4.761905e+01,   -5.000000e+00
    4518,   -7.142857e+01,    4.166667e+01,   -5.000000e+00
    4519,   -6.547619e+01,    4.761905e+01,   -5.000000e+00
    4520,   -8.333333e+01,    4.166667e+01,   -5.000000e+00
    4521,   -7.738095e+01,    4.761905e+01,   -5.000000e+00
    4522,   -9.523810e+01,    4.166667e+01,   -5.000000e+00
    4523,   -8.928571e+01,    4.761905e+01,   -5.000000e+00
    4524,   -1.071429e+02,    4.166667e+01,   -5.000000e+00
    4525,   -1.011905e+02,    4.761905e+01,   -5.000000e+00
    4526,   -1.190476e+02,    4.166667e+01,   -5.000000e+00
    4527,   -1.130952e+02,    4.761905e+01,   -5.000000e+00
    4528,   -1.309524e+02,    4.166667e+01,   -5.000000e+00
    4529,   -1.250000e+02,    4.761905e+01,   -5.000000e+00
    4530,   -1.428571e+02,    4.166667e+01,   -5.000000e+00
    4531,   -1.369048e+02,    4.761905e+01,   -5.000000e+00
    4532,   -1.547619e+02,    4.166667e+01,   -5.000000e+00
    4533,   -1.488095e+02,    4.761905e+01,   -5.000000e+00
    4534,   -1.666667e+02,    4.166667e+01,   -5.000000e+00
    4535,   -1.607143e+02,    4.761905e+01,   -5.000000e+00
    4536,   -1.785714e+02,    4.166667e+01,   -5.000000e+00
    4537,   -1.726190e+02,    4.761905e+01,   -5.000000e+00
    4538,   -1.904762e+02,    4.166667e+01,   -5.000000e+00
    4539,   -1.845238e+02,    4.761905e+01,   -5.000000e+00
    4540,   -2.023810e+02,    4.166667e+01,   -5.000000e+00
    4541,   -1.964286e+02,    4.761905e+01,   -5.000000e+00
    4542,   -2.142857e+02,    4.166667e+01,   -5.000000e+00
    4543,   -2.083333e+02,    4.761905e+01,   -5.000000e+00
    4544,   -2.261905e+02,    4.166667e+01,   -5.000000e+00
    4545,   -2.202381e+02,    4.761905e+01,   -5.000000e+00
    4546,   -2.380952e+02,    4.166667e+01,   -5.000000e+00
    4547,   -2.321429e+02,    4.761905e+01,   -5.000000e+00
    4548,   -2.440476e+02,    4.761905e+01,   -5.000000e+00
    4549,   -1.190476e+01,    5.357143e+01,   -5.000000e+00
    4550,   -5.952381e+00,    5.952381e+01,   -5.000000e+00
    4551,   -2.380952e+01,    5.357143e+01,   -5.000000e+00
    4552,   -1.785714e+01,    5.952381e+01,   -5.000000e+00
    4553,   -3.571429e+01,    5.357143e+01,   -5.000000e+00
    4554,   -2.976190e+01,    5.952381e+01,   -5.000000e+00
    4555,   -4.761905e+01,    5.357143e+01,   -5.000000e+00
    4556,   -4.166667e+01,    5.952381e+01,   -5.000000e+00
    4557,   -5.952381e+01,    5.357143e+01,   -5.000000e+00
    4558,   -5.357143e+01,    5.952381e+01,   -5.000000e+00
    4559,   -7.142857e+01,    5.357143e+01,   -5.000000e+00
    4560,   -6.547619e+01,    5.952381e+01,   -5.000000e+00
    4561,   -8.333333e+01,    5.357143e+01,   -5.000000e+00
    4562,   -7.738095e+01,    5.952381e+01,   -5.000000e+00
    4563,   -9.523810e+01,    5.357143e+01,   -5.000000e+00
    4564,   -8.928571e+01,    5.952381e+01,   -5.000000e+00
    4565,   -1.071429e+02,    5.357143e+01,   -5.000000e+00
    4566,   -1.011905e+02,    5.952381e+01,   -5.000000e+00
    4567,   -1.190476e+02,    5.357143e+01,   -5.000000e+00
    4568,   -1.130952e+02,    5.952381e+01,   -5.000000e+00
    4569,   -1.309524e+02,    5.357143e+01,   -5.000000e+00
    4570,   -1.250000e+02,    5.952381e+01,   -5.000000e+00
    4571,   -1.428571e+02,    5.357143e+01,   -5.000000e+00
    4572,   -1.369048e+02,    5.952381e+01,   -5.000000e+00
    4573,   -1.547619e+02,    5.357143e+01,   -5.000000e+00
    4574,   -1.488095e+02,    5.952381e+01,   -5.000000e+00
    4575,   -1.666667e+02,    5.357143e+01,   -5.000000e+00
    4576,   -1.607143e+02,    5.952381e+01,   -5.000000e+00
    4577,   -1.785714e+02,    5.357143e+01,   -5.000000e+00
    4578,   -1.726190e+02,    5.952381e+01,   -5.000000e+00
    4579,   -1.904762e+02,    5.357143e+01,   -5.000000e+00
    4580,   -1.845238e+02,    5.952381e+01,   -5.000000e+00
    4581,   -2.023810e+02,    5.357143e+01,   -5.000000e+00
    4582,   -1.964286e+02,    5.952381e+01,   -5.000000e+00
    4583,   -2.142857e+02,    5.357143e+01,   -5.000000e+00
    4584,   -2.083333e+02,    5.952381e+01,   -5.000000e+00
    4585,   -2.261905e+02,    5.357143e+01,   -5.000000e+00
    4586,   -2.202381e+02,    5.952381e+01,   -5.000000e+00
    4587,   -2.380952e+02,    5.357143e+01,   -5.000000e+00
    4588,   -2.321429e+02,    5.952381e+01,   -5.000000e+00
    4589,   -2.440476e+02,    5.952381e+01,   -5.000000e+00
    4590,   -1.190476e+01,    6.547619e+01,   -5.000000e+00
    4591,   -5.952381e+00,    7.142857e+01,   -5.000000e+00
    4592,   -2.380952e+01,    6.547619e+01,   -5.000000e+00
    4593,   -1.785714e+01,    7.142857e+01,   -5.000000e+00
    4594,   -3.571429e+01,    6.547619e+01,   -5.000000e+00
    4595,   -2.976190e+01,    7.142857e+01,   -5.000000e+00
    4596,   -4.761905e+01,    6.547619e+01,   -5.000000e+00
    4597,   -4.166667e+01,    7.142857e+01,   -5.000000e+00
    4598,   -5.952381e+01,    6.547619e+01,   -5.000000e+00
    4599,   -5.357143e+01,    7.142857e+01,   -5.000000e+00
    4600,   -7.142857e+01,    6.547619e+01,   -5.000000e+00
    4601,   -6.547619e+01,    7.142857e+01,   -5.000000e+00
    4602,   -8.333333e+01,    6.547619e+01,   -5.000000e+00
    4603,   -7.738095e+01,    7.142857e+01,   -5.000000e+00
    4604,   -9.523810e+01,    6.547619e+01,   -5.000000e+00
    4605,   -8.928571e+01,    7.142857e+01,   -5.000000e+00
    4606,   -1.071429e+02,    6.547619e+01,   -5.000000e+00
    4607,   -1.011905e+02,    7.142857e+01,   -5.000000e+00
    4608,   -1.190476e+02,    6.547619e+01,   -5.000000e+00
    4609,   -1.130952e+02,    7.142857e+01,   -5.000000e+00
    4610,   -1.309524e+02,    6.547619e+01,   -5.000000e+00
    4611,   -1.250000e+02,    7.142857e+01,   -5.000000e+00
    4612,   -1.428571e+02,    6.547619e+01,   -5.000000e+00
    4613,   -1.369048e+02,    7.142857e+01,   -5.000000e+00
    4614,   -1.547619e+02,    6.547619e+01,   -5.000000e+00
    4615,   -1.488095e+02,    7.142857e+01,   -5.000000e+00
    4616,   -1.666667e+02,    6.547619e+01,   -5.000000e+00
    4617,   -1.607143e+02,    7.142857e+01,   -5.000000e+00
    4618,   -1.785714e+02,    6.547619e+01,   -5.000000e+00
    4619,   -1.726190e+02,    7.142857e+01,   -5.000000e+00
    4620,   -1.904762e+02,    6.547619e+01,   -5.000000e+00
    4621,   -1.845238e+02,    7.142857e+01,   -5.000000e+00
    4622,   -2.023810e+02,    6.547619e+01,   -5.000000e+00
    4623,   -1.964286e+02,    7.142857e+01,   -5.000000e+00
    4624,   -2.142857e+02,    6.547619e+01,   -5.000000e+00
    4625,   -2.083333e+02,    7.142857e+01,   -5.000000e+00
    4626,   -2.261905e+02,    6.547619e+01,   -5.000000e+00
    4627,   -2.202381e+02,    7.142857e+01,   -5.000000e+00
    4628,   -2.380952e+02,    6.547619e+01,   -5.000000e+00
    4629,   -2.321429e+02,    7.142857e+01,   -5.000000e+00
    4630,   -2.440476e+02,    7.142857e+01,   -5.000000e+00
    4631,   -1.190476e+01,    7.738095e+01,   -5.000000e+00
    4632,   -5.952381e+00,    8.333333e+01,   -5.000000e+00
    4633,   -2.380952e+01,    7.738095e+01,   -5.000000e+00
    4634,   -1.785714e+01,    8.333333e+01,   -5.000000e+00
    4635,   -3.571429e+01,    7.738095e+01,   -5.000000e+00
    4636,   -2.976190e+01,    8.333333e+01,   -5.000000e+00
    4637,   -4.761905e+01,    7.738095e+01,   -5.000000e+00
    4638,   -4.166667e+01,    8.333333e+01,   -5.000000e+00
    4639,   -5.952381e+01,    7.738095e+01,   -5.000000e+00
    4640,   -5.357143e+01,    8.333333e+01,   -5.000000e+00
    4641,   -7.142857e+01,    7.738095e+01,   -5.000000e+00
    4642,   -6.547619e+01,    8.333333e+01,   -5.000000e+00
    4643,   -8.333333e+01,    7.738095e+01,   -5.000000e+00
    4644,   -7.738095e+01,    8.333333e+01,   -5.000000e+00
    4645,   -9.523810e+01,    7.738095e+01,   -5.000000e+00
    4646,   -8.928571e+01,    8.333333e+01,   -5.000000e+00
    4647,   -1.071429e+02,    7.738095e+01,   -5.000000e+00
    4648,   -1.011905e+02,    8.333333e+01,   -5.000000e+00
    4649,   -1.190476e+02,    7.738095e+01,   -5.000000e+00
    4650,   -1.130952e+02,    8.333333e+01,   -5.000000e+00
    4651,   -1.309524e+02,    7.738095e+01,   -5.000000e+00
    4652,   -1.250000e+02,    8.333333e+01,   -5.000000e+00
    4653,   -1.428571e+02,    7.738095e+01,   -5.000000e+00
    4654,   -1.369048e+02,    8.333333e+01,   -5.000000e+00
    4655,   -1.547619e+02,    7.738095e+01,   -5.000000e+00
    4656,   -1.488095e+02,    8.333333e+01,   -5.000000e+00
    4657,   -1.666667e+02,    7.738095e+01,   -5.000000e+00
    4658,   -1.607143e+02,    8.333333e+01,   -5.000000e+00
    4659,   -1.785714e+02,    7.738095e+01,   -5.000000e+00
    4660,   -1.726190e+02,    8.333333e+01,   -5.000000e+00
    4661,   -1.904762e+02,    7.738095e+01,   -5.000000e+00
    4662,   -1.845238e+02,    8.333333e+01,   -5.000000e+00
    4663,   -2.023810e+02,    7.738095e+01,   -5.000000e+00
    4664,   -1.964286e+02,    8.333333e+01,   -5.000000e+00
    4665,   -2.142857e+02,    7.738095e+01,   -5.000000e+00
    4666,   -2.083333e+02,    8.333333e+01,   -5.000000e+00
    4667,   -2.261905e+02,    7.738095e+01,   -5.000000e+00
    4668,   -2.202381e+02,    8.333333e+01,   -5.000000e+00
    4669,   -2.380952e+02,    7.738095e+01,   -5.000000e+00
    4670,   -2.321429e+02,    8.333333e+01,   -5.000000e+00
    4671,   -2.440476e+02,    8.333333e+01,   -5.000000e+00
    4672,   -1.190476e+01,    8.928571e+01,   -5.000000e+00
    4673,   -5.952381e+00,    9.523810e+01,   -5.000000e+00
    4674,   -2.380952e+01,    8.928571e+01,   -5.000000e+00
    4675,   -1.785714e+01,    9.523810e+01,   -5.000000e+00
    4676,   -3.571429e+01,    8.928571e+01,   -5.000000e+00
    4677,   -2.976190e+01,    9.523810e+01,   -5.000000e+00
    4678,   -4.761905e+01,    8.928571e+01,   -5.000000e+00
    4679,   -4.166667e+01,    9.523810e+01,   -5.000000e+00
    4680,   -5.952381e+01,    8.928571e+01,   -5.000000e+00
    4681,   -5.357143e+01,    9.523810e+01,   -5.000000e+00
    4682,   -7.142857e+01,    8.928571e+01,   -5.000000e+00
    4683,   -6.547619e+01,    9.523810e+01,   -5.000000e+00
    4684,   -8.333333e+01,    8.928571e+01,   -5.000000e+00
    4685,   -7.738095e+01,    9.523810e+01,   -5.000000e+00
    4686,   -9.523810e+01,    8.928571e+01,   -5.000000e+00
    4687,   -8.928571e+01,    9.523810e+01,   -5.000000e+00
    4688,   -1.071429e+02,    8.928571e+01,   -5.000000e+00
    4689,   -1.011905e+02,    9.523810e+01,   -5.000000e+00
    4690,   -1.190476e+02,    8.928571e+01,   -5.000000e+00
    4691,   -1.130952e+02,    9.523810e+01,   -5.000000e+00
    4692,   -1.309524e+02,    8.928571e+01,   -5.000000e+00
    4693,   -1.250000e+02,    9.523810e+01,   -5.000000e+00
    4694,   -1.428571e+02,    8.928571e+01,   -5.000000e+00
    4695,   -1.369048e+02,    9.523810e+01,   -5.000000e+00
    4696,   -1.547619e+02,    8.928571e+01,   -5.000000e+00
    4697,   -1.488095e+02,    9.523810e+01,   -5.000000e+00
    4698,   -1.666667e+02,    8.928571e+01,   -5.000000e+00
    4699,   -1.607143e+02,    9.523810e+01,   -5.000000e+00
    4700,   -1.785714e+02,    8.928571e+01,   -5.000000e+00
    4701,   -1.726190e+02,    9.523810e+01,   -5.000000e+00
    4702,   -1.904762e+02,    8.928571e+01,   -5.000000e+00
    4703,   -1.845238e+02,    9.523810e+01,   -5.000000e+00
    4704,   -2.023810e+02,    8.928571e+01,   -5.000000e+00
    4705,   -1.964286e+02,    9.523810e+01,   -5.000000e+00
    4706,   -2.142857e+02,    8.928571e+01,   -5.000000e+00
    4707,   -2.083333e+02,    9.523810e+01,   -5.000000e+00
    4708,   -2.261905e+02,    8.928571e+01,   -5.000000e+00
    4709,   -2.202381e+02,    9.523810e+01,   -5.000000e+00
    4710,   -2.380952e+02,    8.928571e+01,   -5.000000e+00
    4711,   -2.321429e+02,    9.523810e+01,   -5.000000e+00
    4712,   -2.440476e+02,    9.523810e+01,   -5.000000e+00
    4713,   -1.190476e+01,    1.011905e+02,   -5.000000e+00
    4714,   -5.952381e+00,    1.071429e+02,   -5.000000e+00
    4715,   -2.380952e+01,    1.011905e+02,   -5.000000e+00
    4716,   -1.785714e+01,    1.071429e+02,   -5.000000e+00
    4717,   -3.571429e+01,    1.011905e+02,   -5.000000e+00
    4718,   -2.976190e+01,    1.071429e+02,   -5.000000e+00
    4719,   -4.761905e+01,    1.011905e+02,   -5.000000e+00
    4720,   -4.166667e+01,    1.071429e+02,   -5.000000e+00
    4721,   -5.952381e+01,    1.011905e+02,   -5.000000e+00
    4722,   -5.357143e+01,    1.071429e+02,   -5.000000e+00
    4723,   -7.142857e+01,    1.011905e+02,   -5.000000e+00
    4724,   -6.547619e+01,    1.071429e+02,   -5.000000e+00
    4725,   -8.333333e+01,    1.011905e+02,   -5.000000e+00
    4726,   -7.738095e+01,    1.071429e+02,   -5.000000e+00
    4727,   -9.523810e+01,    1.011905e+02,   -5.000000e+00
    4728,   -8.928571e+01,    1.071429e+02,   -5.000000e+00
    4729,   -1.071429e+02,    1.011905e+02,   -5.000000e+00
    4730,   -1.011905e+02,    1.071429e+02,   -5.000000e+00
    4731,   -1.190476e+02,    1.011905e+02,   -5.000000e+00
    4732,   -1.130952e+02,    1.071429e+02,   -5.000000e+00
    4733,   -1.309524e+02,    1.011905e+02,   -5.000000e+00
    4734,   -1.250000e+02,    1.071429e+02,   -5.000000e+00
    4735,   -1.428571e+02,    1.011905e+02,   -5.000000e+00
    4736,   -1.369048e+02,    1.071429e+02,   -5.000000e+00
    4737,   -1.547619e+02,    1.011905e+02,   -5.000000e+00
    4738,   -1.488095e+02,    1.071429e+02,   -5.000000e+00
    4739,   -1.666667e+02,    1.011905e+02,   -5.000000e+00
    4740,   -1.607143e+02,    1.071429e+02,   -5.000000e+00
    4741,   -1.785714e+02,    1.011905e+02,   -5.000000e+00
    4742,   -1.726190e+02,    1.071429e+02,   -5.000000e+00
    4743,   -1.904762e+02,    1.011905e+02,   -5.000000e+00
    4744,   -1.845238e+02,    1.071429e+02,   -5.000000e+00
    4745,   -2.023810e+02,    1.011905e+02,   -5.000000e+00
    4746,   -1.964286e+02,    1.071429e+02,   -5.000000e+00
    4747,   -2.142857e+02,    1.011905e+02,   -5.000000e+00
    4748,   -2.083333e+02,    1.071429e+02,   -5.000000e+00
    4749,   -2.261905e+02,    1.011905e+02,   -5.000000e+00
    4750,   -2.202381e+02,    1.071429e+02,   -5.000000e+00
    4751,   -2.380952e+02,    1.011905e+02,   -5.000000e+00
    4752,   -2.321429e+02,    1.071429e+02,   -5.000000e+00
    4753,   -2.440476e+02,    1.071429e+02,   -5.000000e+00
    4754,   -1.190476e+01,    1.130952e+02,   -5.000000e+00
    4755,   -5.952381e+00,    1.190476e+02,   -5.000000e+00
    4756,   -2.380952e+01,    1.130952e+02,   -5.000000e+00
    4757,   -1.785714e+01,    1.190476e+02,   -5.000000e+00
    4758,   -3.571429e+01,    1.130952e+02,   -5.000000e+00
    4759,   -2.976190e+01,    1.190476e+02,   -5.000000e+00
    4760,   -4.761905e+01,    1.130952e+02,   -5.000000e+00
    4761,   -4.166667e+01,    1.190476e+02,   -5.000000e+00
    4762,   -5.952381e+01,    1.130952e+02,   -5.000000e+00
    4763,   -5.357143e+01,    1.190476e+02,   -5.000000e+00
    4764,   -7.142857e+01,    1.130952e+02,   -5.000000e+00
    4765,   -6.547619e+01,    1.190476e+02,   -5.000000e+00
    4766,   -8.333333e+01,    1.130952e+02,   -5.000000e+00
    4767,   -7.738095e+01,    1.190476e+02,   -5.000000e+00
    4768,   -9.523810e+01,    1.130952e+02,   -5.000000e+00
    4769,   -8.928571e+01,    1.190476e+02,   -5.000000e+00
    4770,   -1.071429e+02,    1.130952e+02,   -5.000000e+00
    4771,   -1.011905e+02,    1.190476e+02,   -5.000000e+00
    4772,   -1.190476e+02,    1.130952e+02,   -5.000000e+00
    4773,   -1.130952e+02,    1.190476e+02,   -5.000000e+00
    4774,   -1.309524e+02,    1.130952e+02,   -5.000000e+00
    4775,   -1.250000e+02,    1.190476e+02,   -5.000000e+00
    4776,   -1.428571e+02,    1.130952e+02,   -5.000000e+00
    4777,   -1.369048e+02,    1.190476e+02,   -5.000000e+00
    4778,   -1.547619e+02,    1.130952e+02,   -5.000000e+00
    4779,   -1.488095e+02,    1.190476e+02,   -5.000000e+00
    4780,   -1.666667e+02,    1.130952e+02,   -5.000000e+00
    4781,   -1.607143e+02,    1.190476e+02,   -5.000000e+00
    4782,   -1.785714e+02,    1.130952e+02,   -5.000000e+00
    4783,   -1.726190e+02,    1.190476e+02,   -5.000000e+00
    4784,   -1.904762e+02,    1.130952e+02,   -5.000000e+00
    4785,   -1.845238e+02,    1.190476e+02,   -5.000000e+00
    4786,   -2.023810e+02,    1.130952e+02,   -5.000000e+00
    4787,   -1.964286e+02,    1.190476e+02,   -5.000000e+00
    4788,   -2.142857e+02,    1.130952e+02,   -5.000000e+00
    4789,   -2.083333e+02,    1.190476e+02,   -5.000000e+00
    4790,   -2.261905e+02,    1.130952e+02,   -5.000000e+00
    4791,   -2.202381e+02,    1.190476e+02,   -5.000000e+00
    4792,   -2.380952e+02,    1.130952e+02,   -5.000000e+00
    4793,   -2.321429e+02,    1.190476e+02,   -5.000000e+00
    4794,   -2.440476e+02,    1.190476e+02,   -5.000000e+00
    4795,   -1.190476e+01,    1.250000e+02,   -5.000000e+00
    4796,   -5.952381e+00,    1.309524e+02,   -5.000000e+00
    4797,   -2.380952e+01,    1.250000e+02,   -5.000000e+00
    4798,   -1.785714e+01,    1.309524e+02,   -5.000000e+00
    4799,   -3.571429e+01,    1.250000e+02,   -5.000000e+00
    4800,   -2.976190e+01,    1.309524e+02,   -5.000000e+00
    4801,   -4.761905e+01,    1.250000e+02,   -5.000000e+00
    4802,   -4.166667e+01,    1.309524e+02,   -5.000000e+00
    4803,   -5.952381e+01,    1.250000e+02,   -5.000000e+00
    4804,   -5.357143e+01,    1.309524e+02,   -5.000000e+00
    4805,   -7.142857e+01,    1.250000e+02,   -5.000000e+00
    4806,   -6.547619e+01,    1.309524e+02,   -5.000000e+00
    4807,   -8.333333e+01,    1.250000e+02,   -5.000000e+00
    4808,   -7.738095e+01,    1.309524e+02,   -5.000000e+00
    4809,   -9.523810e+01,    1.250000e+02,   -5.000000e+00
    4810,   -8.928571e+01,    1.309524e+02,   -5.000000e+00
    4811,   -1.071429e+02,    1.250000e+02,   -5.000000e+00
    4812,   -1.011905e+02,    1.309524e+02,   -5.000000e+00
    4813,   -1.190476e+02,    1.250000e+02,   -5.000000e+00
    4814,   -1.130952e+02,    1.309524e+02,   -5.000000e+00
    4815,   -1.309524e+02,    1.250000e+02,   -5.000000e+00
    4816,   -1.250000e+02,    1.309524e+02,   -5.000000e+00
    4817,   -1.428571e+02,    1.250000e+02,   -5.000000e+00
    4818,   -1.369048e+02,    1.309524e+02,   -5.000000e+00
    4819,   -1.547619e+02,    1.250000e+02,   -5.000000e+00
    4820,   -1.488095e+02,    1.309524e+02,   -5.000000e+00
    4821,   -1.666667e+02,    1.250000e+02,   -5.000000e+00
    4822,   -1.607143e+02,    1.309524e+02,   -5.000000e+00
    4823,   -1.785714e+02,    1.250000e+02,   -5.000000e+00
    4824,   -1.726190e+02,    1.309524e+02,   -5.000000e+00
    4825,   -1.904762e+02,    1.250000e+02,   -5.000000e+00
    4826,   -1.845238e+02,    1.309524e+02,   -5.000000e+00
    4827,   -2.023810e+02,    1.250000e+02,   -5.000000e+00
    4828,   -1.964286e+02,    1.309524e+02,   -5.000000e+00
    4829,   -2.142857e+02,    1.250000e+02,   -5.000000e+00
    4830,   -2.083333e+02,    1.309524e+02,   -5.000000e+00
    4831,   -2.261905e+02,    1.250000e+02,   -5.000000e+00
    4832,   -2.202381e+02,    1.309524e+02,   -5.000000e+00
    4833,   -2.380952e+02,    1.250000e+02,   -5.000000e+00
    4834,   -2.321429e+02,    1.309524e+02,   -5.000000e+00
    4835,   -2.440476e+02,    1.309524e+02,   -5.000000e+00
    4836,   -1.190476e+01,    1.369048e+02,   -5.000000e+00
    4837,   -5.952381e+00,    1.428571e+02,   -5.000000e+00
    4838,   -2.380952e+01,    1.369048e+02,   -5.000000e+00
    4839,   -1.785714e+01,    1.428571e+02,   -5.000000e+00
    4840,   -3.571429e+01,    1.369048e+02,   -5.000000e+00
    4841,   -2.976190e+01,    1.428571e+02,   -5.000000e+00
    4842,   -4.761905e+01,    1.369048e+02,   -5.000000e+00
    4843,   -4.166667e+01,    1.428571e+02,   -5.000000e+00
    4844,   -5.952381e+01,    1.369048e+02,   -5.000000e+00
    4845,   -5.357143e+01,    1.428571e+02,   -5.000000e+00
    4846,   -7.142857e+01,    1.369048e+02,   -5.000000e+00
    4847,   -6.547619e+01,    1.428571e+02,   -5.000000e+00
    4848,   -8.333333e+01,    1.369048e+02,   -5.000000e+00
    4849,   -7.738095e+01,    1.428571e+02,   -5.000000e+00
    4850,   -9.523810e+01,    1.369048e+02,   -5.000000e+00
    4851,   -8.928571e+01,    1.428571e+02,   -5.000000e+00
    4852,   -1.071429e+02,    1.369048e+02,   -5.000000e+00
    4853,   -1.011905e+02,    1.428571e+02,   -5.000000e+00
    4854,   -1.190476e+02,    1.369048e+02,   -5.000000e+00
    4855,   -1.130952e+02,    1.428571e+02,   -5.000000e+00
    4856,   -1.309524e+02,    1.369048e+02,   -5.000000e+00
    4857,   -1.250000e+02,    1.428571e+02,   -5.000000e+00
    4858,   -1.428571e+02,    1.369048e+02,   -5.000000e+00
    4859,   -1.369048e+02,    1.428571e+02,   -5.000000e+00
    4860,   -1.547619e+02,    1.369048e+02,   -5.000000e+00
    4861,   -1.488095e+02,    1.428571e+02,   -5.000000e+00
    4862,   -1.666667e+02,    1.369048e+02,   -5.000000e+00
    4863,   -1.607143e+02,    1.428571e+02,   -5.000000e+00
    4864,   -1.785714e+02,    1.369048e+02,   -5.000000e+00
    4865,   -1.726190e+02,    1.428571e+02,   -5.000000e+00
    4866,   -1.904762e+02,    1.369048e+02,   -5.000000e+00
    4867,   -1.845238e+02,    1.428571e+02,   -5.000000e+00
    4868,   -2.023810e+02,    1.369048e+02,   -5.000000e+00
    4869,   -1.964286e+02,    1.428571e+02,   -5.000000e+00
    4870,   -2.142857e+02,    1.369048e+02,   -5.000000e+00
    4871,   -2.083333e+02,    1.428571e+02,   -5.000000e+00
    4872,   -2.261905e+02,    1.369048e+02,   -5.000000e+00
    4873,   -2.202381e+02,    1.428571e+02,   -5.000000e+00
    4874,   -2.380952e+02,    1.369048e+02,   -5.000000e+00
    4875,   -2.321429e+02,    1.428571e+02,   -5.000000e+00
    4876,   -2.440476e+02,    1.428571e+02,   -5.000000e+00
    4877,   -1.190476e+01,    1.488095e+02,   -5.000000e+00
    4878,   -5.952381e+00,    1.547619e+02,   -5.000000e+00
    4879,   -2.380952e+01,    1.488095e+02,   -5.000000e+00
    4880,   -1.785714e+01,    1.547619e+02,   -5.000000e+00
    4881,   -3.571429e+01,    1.488095e+02,   -5.000000e+00
    4882,   -2.976190e+01,    1.547619e+02,   -5.000000e+00
    4883,   -4.761905e+01,    1.488095e+02,   -5.000000e+00
    4884,   -4.166667e+01,    1.547619e+02,   -5.000000e+00
    4885,   -5.952381e+01,    1.488095e+02,   -5.000000e+00
    4886,   -5.357143e+01,    1.547619e+02,   -5.000000e+00
    4887,   -7.142857e+01,    1.488095e+02,   -5.000000e+00
    4888,   -6.547619e+01,    1.547619e+02,   -5.000000e+00
    4889,   -8.333333e+01,    1.488095e+02,   -5.000000e+00
    4890,   -7.738095e+01,    1.547619e+02,   -5.000000e+00
    4891,   -9.523810e+01,    1.488095e+02,   -5.000000e+00
    4892,   -8.928571e+01,    1.547619e+02,   -5.000000e+00
    4893,   -1.071429e+02,    1.488095e+02,   -5.000000e+00
    4894,   -1.011905e+02,    1.547619e+02,   -5.000000e+00
    4895,   -1.190476e+02,    1.488095e+02,   -5.000000e+00
    4896,   -1.130952e+02,    1.547619e+02,   -5.000000e+00
    4897,   -1.309524e+02,    1.488095e+02,   -5.000000e+00
    4898,   -1.250000e+02,    1.547619e+02,   -5.000000e+00
    4899,   -1.428571e+02,    1.488095e+02,   -5.000000e+00
    4900,   -1.369048e+02,    1.547619e+02,   -5.000000e+00
    4901,   -1.547619e+02,    1.488095e+02,   -5.000000e+00
    4902,   -1.488095e+02,    1.547619e+02,   -5.000000e+00
    4903,   -1.666667e+02,    1.488095e+02,   -5.000000e+00
    4904,   -1.607143e+02,    1.547619e+02,   -5.000000e+00
    4905,   -1.785714e+02,    1.488095e+02,   -5.000000e+00
    4906,   -1.726190e+02,    1.547619e+02,   -5.000000e+00
    4907,   -1.904762e+02,    1.488095e+02,   -5.000000e+00
    4908,   -1.845238e+02,    1.547619e+02,   -5.000000e+00
    4909,   -2.023810e+02,    1.488095e+02,   -5.000000e+00
    4910,   -1.964286e+02,    1.547619e+02,   -5.000000e+00
    4911,   -2.142857e+02,    1.488095e+02,   -5.000000e+00
    4912,   -2.083333e+02,    1.547619e+02,   -5.000000e+00
    4913,   -2.261905e+02,    1.488095e+02,   -5.000000e+00
    4914,   -2.202381e+02,    1.547619e+02,   -5.000000e+00
    4915,   -2.380952e+02,    1.488095e+02,   -5.000000e+00
    4916,   -2.321429e+02,    1.547619e+02,   -5.000000e+00
    4917,   -2.440476e+02,    1.547619e+02,   -5.000000e+00
    4918,   -1.190476e+01,    1.607143e+02,   -5.000000e+00
    4919,   -5.952381e+00,    1.666667e+02,   -5.000000e+00
    4920,   -2.380952e+01,    1.607143e+02,   -5.000000e+00
    4921,   -1.785714e+01,    1.666667e+02,   -5.000000e+00
    4922,   -3.571429e+01,    1.607143e+02,   -5.000000e+00
    4923,   -2.976190e+01,    1.666667e+02,   -5.000000e+00
    4924,   -4.761905e+01,    1.607143e+02,   -5.000000e+00
    4925,   -4.166667e+01,    1.666667e+02,   -5.000000e+00
    4926,   -5.952381e+01,    1.607143e+02,   -5.000000e+00
    4927,   -5.357143e+01,    1.666667e+02,   -5.000000e+00
    4928,   -7.142857e+01,    1.607143e+02,   -5.000000e+00
    4929,   -6.547619e+01,    1.666667e+02,   -5.000000e+00
    4930,   -8.333333e+01,    1.607143e+02,   -5.000000e+00
    4931,   -7.738095e+01,    1.666667e+02,   -5.000000e+00
    4932,   -9.523810e+01,    1.607143e+02,   -5.000000e+00
    4933,   -8.928571e+01,    1.666667e+02,   -5.000000e+00
    4934,   -1.071429e+02,    1.607143e+02,   -5.000000e+00
    4935,   -1.011905e+02,    1.666667e+02,   -5.000000e+00
    4936,   -1.190476e+02,    1.607143e+02,   -5.000000e+00
    4937,   -1.130952e+02,    1.666667e+02,   -5.000000e+00
    4938,   -1.309524e+02,    1.607143e+02,   -5.000000e+00
    4939,   -1.250000e+02,    1.666667e+02,   -5.000000e+00
    4940,   -1.428571e+02,    1.607143e+02,   -5.000000e+00
    4941,   -1.369048e+02,    1.666667e+02,   -5.000000e+00
    4942,   -1.547619e+02,    1.607143e+02,   -5.000000e+00
    4943,   -1.488095e+02,    1.666667e+02,   -5.000000e+00
    4944,   -1.666667e+02,    1.607143e+02,   -5.000000e+00
    4945,   -1.607143e+02,    1.666667e+02,   -5.000000e+00
    4946,   -1.785714e+02,    1.607143e+02,   -5.000000e+00
    4947,   -1.726190e+02,    1.666667e+02,   -5.000000e+00
    4948,   -1.904762e+02,    1.607143e+02,   -5.000000e+00
    4949,   -1.845238e+02,    1.666667e+02,   -5.000000e+00
    4950,   -2.023810e+02,    1.607143e+02,   -5.000000e+00
    4951,   -1.964286e+02,    1.666667e+02,   -5.000000e+00
    4952,   -2.142857e+02,    1.607143e+02,   -5.000000e+00
    4953,   -2.083333e+02,    1.666667e+02,   -5.000000e+00
    4954,   -2.261905e+02,    1.607143e+02,   -5.000000e+00
    4955,   -2.202381e+02,    1.666667e+02,   -5.000000e+00
    4956,   -2.380952e+02,    1.607143e+02,   -5.000000e+00
    4957,   -2.321429e+02,    1.666667e+02,   -5.000000e+00
    4958,   -2.440476e+02,    1.666667e+02,   -5.000000e+00
    4959,   -1.190476e+01,    1.726190e+02,   -5.000000e+00
    4960,   -5.952381e+00,    1.785714e+02,   -5.000000e+00
    4961,   -2.380952e+01,    1.726190e+02,   -5.000000e+00
    4962,   -1.785714e+01,    1.785714e+02,   -5.000000e+00
    4963,   -3.571429e+01,    1.726190e+02,   -5.000000e+00
    4964,   -2.976190e+01,    1.785714e+02,   -5.000000e+00
    4965,   -4.761905e+01,    1.726190e+02,   -5.000000e+00
    4966,   -4.166667e+01,    1.785714e+02,   -5.000000e+00
    4967,   -5.952381e+01,    1.726190e+02,   -5.000000e+00
    4968,   -5.357143e+01,    1.785714e+02,   -5.000000e+00
    4969,   -7.142857e+01,    1.726190e+02,   -5.000000e+00
    4970,   -6.547619e+01,    1.785714e+02,   -5.000000e+00
    4971,   -8.333333e+01,    1.726190e+02,   -5.000000e+00
    4972,   -7.738095e+01,    1.785714e+02,   -5.000000e+00
    4973,   -9.523810e+01,    1.726190e+02,   -5.000000e+00
    4974,   -8.928571e+01,    1.785714e+02,   -5.000000e+00
    4975,   -1.071429e+02,    1.726190e+02,   -5.000000e+00
    4976,   -1.011905e+02,    1.785714e+02,   -5.000000e+00
    4977,   -1.190476e+02,    1.726190e+02,   -5.000000e+00
    4978,   -1.130952e+02,    1.785714e+02,   -5.000000e+00
    4979,   -1.309524e+02,    1.726190e+02,   -5.000000e+00
    4980,   -1.250000e+02,    1.785714e+02,   -5.000000e+00
    4981,   -1.428571e+02,    1.726190e+02,   -5.000000e+00
    4982,   -1.369048e+02,    1.785714e+02,   -5.000000e+00
    4983,   -1.547619e+02,    1.726190e+02,   -5.000000e+00
    4984,   -1.488095e+02,    1.785714e+02,   -5.000000e+00
    4985,   -1.666667e+02,    1.726190e+02,   -5.000000e+00
    4986,   -1.607143e+02,    1.785714e+02,   -5.000000e+00
    4987,   -1.785714e+02,    1.726190e+02,   -5.000000e+00
    4988,   -1.726190e+02,    1.785714e+02,   -5.000000e+00
    4989,   -1.904762e+02,    1.726190e+02,   -5.000000e+00
    4990,   -1.845238e+02,    1.785714e+02,   -5.000000e+00
    4991,   -2.023810e+02,    1.726190e+02,   -5.000000e+00
    4992,   -1.964286e+02,    1.785714e+02,   -5.000000e+00
    4993,   -2.142857e+02,    1.726190e+02,   -5.000000e+00
    4994,   -2.083333e+02,    1.785714e+02,   -5.000000e+00
    4995,   -2.261905e+02,    1.726190e+02,   -5.000000e+00
    4996,   -2.202381e+02,    1.785714e+02,   -5.000000e+00
    4997,   -2.380952e+02,    1.726190e+02,   -5.000000e+00
    4998,   -2.321429e+02,    1.785714e+02,   -5.000000e+00
    4999,   -2.440476e+02,    1.785714e+02,   -5.000000e+00
    5000,   -1.190476e+01,    1.845238e+02,   -5.000000e+00
    5001,   -5.952381e+00,    1.904762e+02,   -5.000000e+00
    5002,   -2.380952e+01,    1.845238e+02,   -5.000000e+00
    5003,   -1.785714e+01,    1.904762e+02,   -5.000000e+00
    5004,   -3.571429e+01,    1.845238e+02,   -5.000000e+00
    5005,   -2.976190e+01,    1.904762e+02,   -5.000000e+00
    5006,   -4.761905e+01,    1.845238e+02,   -5.000000e+00
    5007,   -4.166667e+01,    1.904762e+02,   -5.000000e+00
    5008,   -5.952381e+01,    1.845238e+02,   -5.000000e+00
    5009,   -5.357143e+01,    1.904762e+02,   -5.000000e+00
    5010,   -7.142857e+01,    1.845238e+02,   -5.000000e+00
    5011,   -6.547619e+01,    1.904762e+02,   -5.000000e+00
    5012,   -8.333333e+01,    1.845238e+02,   -5.000000e+00
    5013,   -7.738095e+01,    1.904762e+02,   -5.000000e+00
    5014,   -9.523810e+01,    1.845238e+02,   -5.000000e+00
    5015,   -8.928571e+01,    1.904762e+02,   -5.000000e+00
    5016,   -1.071429e+02,    1.845238e+02,   -5.000000e+00
    5017,   -1.011905e+02,    1.904762e+02,   -5.000000e+00
    5018,   -1.190476e+02,    1.845238e+02,   -5.000000e+00
    5019,   -1.130952e+02,    1.904762e+02,   -5.000000e+00
    5020,   -1.309524e+02,    1.845238e+02,   -5.000000e+00
    5021,   -1.250000e+02,    1.904762e+02,   -5.000000e+00
    5022,   -1.428571e+02,    1.845238e+02,   -5.000000e+00
    5023,   -1.369048e+02,    1.904762e+02,   -5.000000e+00
    5024,   -1.547619e+02,    1.845238e+02,   -5.000000e+00
    5025,   -1.488095e+02,    1.904762e+02,   -5.000000e+00
    5026,   -1.666667e+02,    1.845238e+02,   -5.000000e+00
    5027,   -1.607143e+02,    1.904762e+02,   -5.000000e+00
    5028,   -1.785714e+02,    1.845238e+02,   -5.000000e+00
    5029,   -1.726190e+02,    1.904762e+02,   -5.000000e+00
    5030,   -1.904762e+02,    1.845238e+02,   -5.000000e+00
    5031,   -1.845238e+02,    1.904762e+02,   -5.000000e+00
    5032,   -2.023810e+02,    1.845238e+02,   -5.000000e+00
    5033,   -1.964286e+02,    1.904762e+02,   -5.000000e+00
    5034,   -2.142857e+02,    1.845238e+02,   -5.000000e+00
    5035,   -2.083333e+02,    1.904762e+02,   -5.000000e+00
    5036,   -2.261905e+02,    1.845238e+02,   -5.000000e+00
    5037,   -2.202381e+02,    1.904762e+02,   -5.000000e+00
    5038,   -2.380952e+02,    1.845238e+02,   -5.000000e+00
    5039,   -2.321429e+02,    1.904762e+02,   -5.000000e+00
    5040,   -2.440476e+02,    1.904762e+02,   -5.000000e+00
    5041,   -1.190476e+01,    1.964286e+02,   -5.000000e+00
    5042,   -5.952381e+00,    2.023810e+02,   -5.000000e+00
    5043,   -2.380952e+01,    1.964286e+02,   -5.000000e+00
    5044,   -1.785714e+01,    2.023810e+02,   -5.000000e+00
    5045,   -3.571429e+01,    1.964286e+02,   -5.000000e+00
    5046,   -2.976190e+01,    2.023810e+02,   -5.000000e+00
    5047,   -4.761905e+01,    1.964286e+02,   -5.000000e+00
    5048,   -4.166667e+01,    2.023810e+02,   -5.000000e+00
    5049,   -5.952381e+01,    1.964286e+02,   -5.000000e+00
    5050,   -5.357143e+01,    2.023810e+02,   -5.000000e+00
    5051,   -7.142857e+01,    1.964286e+02,   -5.000000e+00
    5052,   -6.547619e+01,    2.023810e+02,   -5.000000e+00
    5053,   -8.333333e+01,    1.964286e+02,   -5.000000e+00
    5054,   -7.738095e+01,    2.023810e+02,   -5.000000e+00
    5055,   -9.523810e+01,    1.964286e+02,   -5.000000e+00
    5056,   -8.928571e+01,    2.023810e+02,   -5.000000e+00
    5057,   -1.071429e+02,    1.964286e+02,   -5.000000e+00
    5058,   -1.011905e+02,    2.023810e+02,   -5.000000e+00
    5059,   -1.190476e+02,    1.964286e+02,   -5.000000e+00
    5060,   -1.130952e+02,    2.023810e+02,   -5.000000e+00
    5061,   -1.309524e+02,    1.964286e+02,   -5.000000e+00
    5062,   -1.250000e+02,    2.023810e+02,   -5.000000e+00
    5063,   -1.428571e+02,    1.964286e+02,   -5.000000e+00
    5064,   -1.369048e+02,    2.023810e+02,   -5.000000e+00
    5065,   -1.547619e+02,    1.964286e+02,   -5.000000e+00
    5066,   -1.488095e+02,    2.023810e+02,   -5.000000e+00
    5067,   -1.666667e+02,    1.964286e+02,   -5.000000e+00
    5068,   -1.607143e+02,    2.023810e+02,   -5.000000e+00
    5069,   -1.785714e+02,    1.964286e+02,   -5.000000e+00
    5070,   -1.726190e+02,    2.023810e+02,   -5.000000e+00
    5071,   -1.904762e+02,    1.964286e+02,   -5.000000e+00
    5072,   -1.845238e+02,    2.023810e+02,   -5.000000e+00
    5073,   -2.023810e+02,    1.964286e+02,   -5.000000e+00
    5074,   -1.964286e+02,    2.023810e+02,   -5.000000e+00
    5075,   -2.142857e+02,    1.964286e+02,   -5.000000e+00
    5076,   -2.083333e+02,    2.023810e+02,   -5.000000e+00
    5077,   -2.261905e+02,    1.964286e+02,   -5.000000e+00
    5078,   -2.202381e+02,    2.023810e+02,   -5.000000e+00
    5079,   -2.380952e+02,    1.964286e+02,   -5.000000e+00
    5080,   -2.321429e+02,    2.023810e+02,   -5.000000e+00
    5081,   -2.440476e+02,    2.023810e+02,   -5.000000e+00
    5082,   -1.190476e+01,    2.083333e+02,   -5.000000e+00
    5083,   -5.952381e+00,    2.142857e+02,   -5.000000e+00
    5084,   -2.380952e+01,    2.083333e+02,   -5.000000e+00
    5085,   -1.785714e+01,    2.142857e+02,   -5.000000e+00
    5086,   -3.571429e+01,    2.083333e+02,   -5.000000e+00
    5087,   -2.976190e+01,    2.142857e+02,   -5.000000e+00
    5088,   -4.761905e+01,    2.083333e+02,   -5.000000e+00
    5089,   -4.166667e+01,    2.142857e+02,   -5.000000e+00
    5090,   -5.952381e+01,    2.083333e+02,   -5.000000e+00
    5091,   -5.357143e+01,    2.142857e+02,   -5.000000e+00
    5092,   -7.142857e+01,    2.083333e+02,   -5.000000e+00
    5093,   -6.547619e+01,    2.142857e+02,   -5.000000e+00
    5094,   -8.333333e+01,    2.083333e+02,   -5.000000e+00
    5095,   -7.738095e+01,    2.142857e+02,   -5.000000e+00
    5096,   -9.523810e+01,    2.083333e+02,   -5.000000e+00
    5097,   -8.928571e+01,    2.142857e+02,   -5.000000e+00
    5098,   -1.071429e+02,    2.083333e+02,   -5.000000e+00
    5099,   -1.011905e+02,    2.142857e+02,   -5.000000e+00
    5100,   -1.190476e+02,    2.083333e+02,   -5.000000e+00
    5101,   -1.130952e+02,    2.142857e+02,   -5.000000e+00
    5102,   -1.309524e+02,    2.083333e+02,   -5.000000e+00
    5103,   -1.250000e+02,    2.142857e+02,   -5.000000e+00
    5104,   -1.428571e+02,    2.083333e+02,   -5.000000e+00
    5105,   -1.369048e+02,    2.142857e+02,   -5.000000e+00
    5106,   -1.547619e+02,    2.083333e+02,   -5.000000e+00
    5107,   -1.488095e+02,    2.142857e+02,   -5.000000e+00
    5108,   -1.666667e+02,    2.083333e+02,   -5.000000e+00
    5109,   -1.607143e+02,    2.142857e+02,   -5.000000e+00
    5110,   -1.785714e+02,    2.083333e+02,   -5.000000e+00
    5111,   -1.726190e+02,    2.142857e+02,   -5.000000e+00
    5112,   -1.904762e+02,    2.083333e+02,   -5.000000e+00
    5113,   -1.845238e+02,    2.142857e+02,   -5.000000e+00
    5114,   -2.023810e+02,    2.083333e+02,   -5.000000e+00
    5115,   -1.964286e+02,    2.142857e+02,   -5.000000e+00
    5116,   -2.142857e+02,    2.083333e+02,   -5.000000e+00
    5117,   -2.083333e+02,    2.142857e+02,   -5.000000e+00
    5118,   -2.261905e+02,    2.083333e+02,   -5.000000e+00
    5119,   -2.202381e+02,    2.142857e+02,   -5.000000e+00
    5120,   -2.380952e+02,    2.083333e+02,   -5.000000e+00
    5121,   -2.321429e+02,    2.142857e+02,   -5.000000e+00
    5122,   -2.440476e+02,    2.142857e+02,   -5.000000e+00
    5123,   -1.190476e+01,    2.202381e+02,   -5.000000e+00
    5124,   -5.952381e+00,    2.261905e+02,   -5.000000e+00
    5125,   -2.380952e+01,    2.202381e+02,   -5.000000e+00
    5126,   -1.785714e+01,    2.261905e+02,   -5.000000e+00
    5127,   -3.571429e+01,    2.202381e+02,   -5.000000e+00
    5128,   -2.976190e+01,    2.261905e+02,   -5.000000e+00
    5129,   -4.761905e+01,    2.202381e+02,   -5.000000e+00
    5130,   -4.166667e+01,    2.261905e+02,   -5.000000e+00
    5131,   -5.952381e+01,    2.202381e+02,   -5.000000e+00
    5132,   -5.357143e+01,    2.261905e+02,   -5.000000e+00
    5133,   -7.142857e+01,    2.202381e+02,   -5.000000e+00
    5134,   -6.547619e+01,    2.261905e+02,   -5.000000e+00
    5135,   -8.333333e+01,    2.202381e+02,   -5.000000e+00
    5136,   -7.738095e+01,    2.261905e+02,   -5.000000e+00
    5137,   -9.523810e+01,    2.202381e+02,   -5.000000e+00
    5138,   -8.928571e+01,    2.261905e+02,   -5.000000e+00
    5139,   -1.071429e+02,    2.202381e+02,   -5.000000e+00
    5140,   -1.011905e+02,    2.261905e+02,   -5.000000e+00
    5141,   -1.190476e+02,    2.202381e+02,   -5.000000e+00
    5142,   -1.130952e+02,    2.261905e+02,   -5.000000e+00
    5143,   -1.309524e+02,    2.202381e+02,   -5.000000e+00
    5144,   -1.250000e+02,    2.261905e+02,   -5.000000e+00
    5145,   -1.428571e+02,    2.202381e+02,   -5.000000e+00
    5146,   -1.369048e+02,    2.261905e+02,   -5.000000e+00
    5147,   -1.547619e+02,    2.202381e+02,   -5.000000e+00
    5148,   -1.488095e+02,    2.261905e+02,   -5.000000e+00
    5149,   -1.666667e+02,    2.202381e+02,   -5.000000e+00
    5150,   -1.607143e+02,    2.261905e+02,   -5.000000e+00
    5151,   -1.785714e+02,    2.202381e+02,   -5.000000e+00
    5152,   -1.726190e+02,    2.261905e+02,   -5.000000e+00
    5153,   -1.904762e+02,    2.202381e+02,   -5.000000e+00
    5154,   -1.845238e+02,    2.261905e+02,   -5.000000e+00
    5155,   -2.023810e+02,    2.202381e+02,   -5.000000e+00
    5156,   -1.964286e+02,    2.261905e+02,   -5.000000e+00
    5157,   -2.142857e+02,    2.202381e+02,   -5.000000e+00
    5158,   -2.083333e+02,    2.261905e+02,   -5.000000e+00
    5159,   -2.261905e+02,    2.202381e+02,   -5.000000e+00
    5160,   -2.202381e+02,    2.261905e+02,   -5.000000e+00
    5161,   -2.380952e+02,    2.202381e+02,   -5.000000e+00
    5162,   -2.321429e+02,    2.261905e+02,   -5.000000e+00
    5163,   -2.440476e+02,    2.261905e+02,   -5.000000e+00
    5164,   -1.190476e+01,    2.321429e+02,   -5.000000e+00
    5165,   -5.952381e+00,    2.380952e+02,   -5.000000e+00
    5166,   -2.380952e+01,    2.321429e+02,   -5.000000e+00
    5167,   -1.785714e+01,    2.380952e+02,   -5.000000e+00
    5168,   -3.571429e+01,    2.321429e+02,   -5.000000e+00
    5169,   -2.976190e+01,    2.380952e+02,   -5.000000e+00
    5170,   -4.761905e+01,    2.321429e+02,   -5.000000e+00
    5171,   -4.166667e+01,    2.380952e+02,   -5.000000e+00
    5172,   -5.952381e+01,    2.321429e+02,   -5.000000e+00
    5173,   -5.357143e+01,    2.380952e+02,   -5.000000e+00
    5174,   -7.142857e+01,    2.321429e+02,   -5.000000e+00
    5175,   -6.547619e+01,    2.380952e+02,   -5.000000e+00
    5176,   -8.333333e+01,    2.321429e+02,   -5.000000e+00
    5177,   -7.738095e+01,    2.380952e+02,   -5.000000e+00
    5178,   -9.523810e+01,    2.321429e+02,   -5.000000e+00
    5179,   -8.928571e+01,    2.380952e+02,   -5.000000e+00
    5180,   -1.071429e+02,    2.321429e+02,   -5.000000e+00
    5181,   -1.011905e+02,    2.380952e+02,   -5.000000e+00
    5182,   -1.190476e+02,    2.321429e+02,   -5.000000e+00
    5183,   -1.130952e+02,    2.380952e+02,   -5.000000e+00
    5184,   -1.309524e+02,    2.321429e+02,   -5.000000e+00
    5185,   -1.250000e+02,    2.380952e+02,   -5.000000e+00
    5186,   -1.428571e+02,    2.321429e+02,   -5.000000e+00
    5187,   -1.369048e+02,    2.380952e+02,   -5.000000e+00
    5188,   -1.547619e+02,    2.321429e+02,   -5.000000e+00
    5189,   -1.488095e+02,    2.380952e+02,   -5.000000e+00
    5190,   -1.666667e+02,    2.321429e+02,   -5.000000e+00
    5191,   -1.607143e+02,    2.380952e+02,   -5.000000e+00
    5192,   -1.785714e+02,    2.321429e+02,   -5.000000e+00
    5193,   -1.726190e+02,    2.380952e+02,   -5.000000e+00
    5194,   -1.904762e+02,    2.321429e+02,   -5.000000e+00
    5195,   -1.845238e+02,    2.380952e+02,   -5.000000e+00
    5196,   -2.023810e+02,    2.321429e+02,   -5.000000e+00
    5197,   -1.964286e+02,    2.380952e+02,   -5.000000e+00
    5198,   -2.142857e+02,    2.321429e+02,   -5.000000e+00
    5199,   -2.083333e+02,    2.380952e+02,   -5.000000e+00
    5200,   -2.261905e+02,    2.321429e+02,   -5.000000e+00
    5201,   -2.202381e+02,    2.380952e+02,   -5.000000e+00
    5202,   -2.380952e+02,    2.321429e+02,   -5.000000e+00
    5203,   -2.321429e+02,    2.380952e+02,   -5.000000e+00
    5204,   -2.440476e+02,    2.380952e+02,   -5.000000e+00
    5205,   -1.190476e+01,    2.440476e+02,   -5.000000e+00
    5206,   -2.380952e+01,    2.440476e+02,   -5.000000e+00
    5207,   -3.571429e+01,    2.440476e+02,   -5.000000e+00
    5208,   -4.761905e+01,    2.440476e+02,   -5.000000e+00
    5209,   -5.952381e+01,    2.440476e+02,   -5.000000e+00
    5210,   -7.142857e+01,    2.440476e+02,   -5.000000e+00
    5211,   -8.333333e+01,    2.440476e+02,   -5.000000e+00
    5212,   -9.523810e+01,    2.440476e+02,   -5.000000e+00
    5213,   -1.071429e+02,    2.440476e+02,   -5.000000e+00
    5214,   -1.190476e+02,    2.440476e+02,   -5.000000e+00
    5215,   -1.309524e+02,    2.440476e+02,   -5.000000e+00
    5216,   -1.428571e+02,    2.440476e+02,   -5.000000e+00
    5217,   -1.547619e+02,    2.440476e+02,   -5.000000e+00
    5218,   -1.666667e+02,    2.440476e+02,   -5.000000e+00
    5219,   -1.785714e+02,    2.440476e+02,   -5.000000e+00
    5220,   -1.904762e+02,    2.440476e+02,   -5.000000e+00
    5221,   -2.023810e+02,    2.440476e+02,   -5.000000e+00
    5222,   -2.142857e+02,    2.440476e+02,   -5.000000e+00
    5223,   -2.261905e+02,    2.440476e+02,   -5.000000e+00
    5224,   -2.380952e+02,    2.440476e+02,   -5.000000e+00
    5225,   -2.500000e+02,    1.190476e+01,    0.000000e+00
    5226,   -2.500000e+02,    2.380952e+01,    0.000000e+00
    5227,   -2.500000e+02,    3.571429e+01,    0.000000e+00
    5228,   -2.500000e+02,    4.761905e+01,    0.000000e+00
    5229,   -2.500000e+02,    5.952381e+01,    0.000000e+00
    5230,   -2.500000e+02,    7.142857e+01,    0.000000e+00
    5231,   -2.500000e+02,    8.333333e+01,    0.000000e+00
    5232,   -2.500000e+02,    9.523810e+01,    0.000000e+00
    5233,   -2.500000e+02,    1.071429e+02,    0.000000e+00
    5234,   -2.500000e+02,    1.190476e+02,    0.000000e+00
    5235,   -2.500000e+02,    1.309524e+02,    0.000000e+00
    5236,   -2.500000e+02,    1.428571e+02,    0.000000e+00
    5237,   -2.500000e+02,    1.547619e+02,    0.000000e+00
    5238,   -2.500000e+02,    1.666667e+02,    0.000000e+00
    5239,   -2.500000e+02,    1.785714e+02,    0.000000e+00
    5240,   -2.500000e+02,    1.904762e+02,    0.000000e+00
    5241,   -2.500000e+02,    2.023810e+02,    0.000000e+00
    5242,   -2.500000e+02,    2.142857e+02,    0.000000e+00
    5243,   -2.500000e+02,    2.261905e+02,    0.000000e+00
    5244,   -2.500000e+02,    2.380952e+02,    0.000000e+00
    5245,   -2.380952e+02,    2.380952e+02,    0.000000e+00
    5246,   -2.261905e+02,    2.380952e+02,    0.000000e+00
    5247,   -2.142857e+02,    2.380952e+02,    0.000000e+00
    5248,   -2.023810e+02,    2.380952e+02,    0.000000e+00
    5249,   -1.904762e+02,    2.380952e+02,    0.000000e+00
    5250,   -1.785714e+02,    2.380952e+02,    0.000000e+00
    5251,   -1.666667e+02,    2.380952e+02,    0.000000e+00
    5252,   -1.547619e+02,    2.380952e+02,    0.000000e+00
    5253,   -1.428571e+02,    2.380952e+02,    0.000000e+00
    5254,   -1.309524e+02,    2.380952e+02,    0.000000e+00
    5255,   -1.190476e+02,    2.380952e+02,    0.000000e+00
    5256,   -1.071429e+02,    2.380952e+02,    0.000000e+00
    5257,   -9.523810e+01,    2.380952e+02,    0.000000e+00
    5258,   -8.333333e+01,    2.380952e+02,    0.000000e+00
    5259,   -7.142857e+01,    2.380952e+02,    0.000000e+00
    5260,   -5.952381e+01,    2.380952e+02,    0.000000e+00
    5261,   -4.761905e+01,    2.380952e+02,    0.000000e+00
    5262,   -3.571429e+01,    2.380952e+02,    0.000000e+00
    5263,   -2.380952e+01,    2.380952e+02,    0.000000e+00
    5264,   -1.190476e+01,    2.380952e+02,    0.000000e+00
    5265,   -2.380952e+02,    2.261905e+02,    0.000000e+00
    5266,   -2.261905e+02,    2.261905e+02,    0.000000e+00
    5267,   -2.142857e+02,    2.261905e+02,    0.000000e+00
    5268,   -2.023810e+02,    2.261905e+02,    0.000000e+00
    5269,   -1.904762e+02,    2.261905e+02,    0.000000e+00
    5270,   -1.785714e+02,    2.261905e+02,    0.000000e+00
    5271,   -1.666667e+02,    2.261905e+02,    0.000000e+00
    5272,   -1.547619e+02,    2.261905e+02,    0.000000e+00
    5273,   -1.428571e+02,    2.261905e+02,    0.000000e+00
    5274,   -1.309524e+02,    2.261905e+02,    0.000000e+00
    5275,   -1.190476e+02,    2.261905e+02,    0.000000e+00
    5276,   -1.071429e+02,    2.261905e+02,    0.000000e+00
    5277,   -9.523810e+01,    2.261905e+02,    0.000000e+00
    5278,   -8.333333e+01,    2.261905e+02,    0.000000e+00
    5279,   -7.142857e+01,    2.261905e+02,    0.000000e+00
    5280,   -5.952381e+01,    2.261905e+02,    0.000000e+00
    5281,   -4.761905e+01,    2.261905e+02,    0.000000e+00
    5282,   -3.571429e+01,    2.261905e+02,    0.000000e+00
    5283,   -2.380952e+01,    2.261905e+02,    0.000000e+00
    5284,   -1.190476e+01,    2.261905e+02,    0.000000e+00
    5285,   -2.380952e+02,    2.142857e+02,    0.000000e+00
    5286,   -2.261905e+02,    2.142857e+02,    0.000000e+00
    5287,   -2.142857e+02,    2.142857e+02,    0.000000e+00
    5288,   -2.023810e+02,    2.142857e+02,    0.000000e+00
    5289,   -1.904762e+02,    2.142857e+02,    0.000000e+00
    5290,   -1.785714e+02,    2.142857e+02,    0.000000e+00
    5291,   -1.666667e+02,    2.142857e+02,    0.000000e+00
    5292,   -1.547619e+02,    2.142857e+02,    0.000000e+00
    5293,   -1.428571e+02,    2.142857e+02,    0.000000e+00
    5294,   -1.309524e+02,    2.142857e+02,    0.000000e+00
    5295,   -1.190476e+02,    2.142857e+02,    0.000000e+00
    5296,   -1.071429e+02,    2.142857e+02,    0.000000e+00
    5297,   -9.523810e+01,    2.142857e+02,    0.000000e+00
    5298,   -8.333333e+01,    2.142857e+02,    0.000000e+00
    5299,   -7.142857e+01,    2.142857e+02,    0.000000e+00
    5300,   -5.952381e+01,    2.142857e+02,    0.000000e+00
    5301,   -4.761905e+01,    2.142857e+02,    0.000000e+00
    5302,   -3.571429e+01,    2.142857e+02,    0.000000e+00
    5303,   -2.380952e+01,    2.142857e+02,    0.000000e+00
    5304,   -1.190476e+01,    2.142857e+02,    0.000000e+00
    5305,   -2.380952e+02,    2.023810e+02,    0.000000e+00
    5306,   -2.261905e+02,    2.023810e+02,    0.000000e+00
    5307,   -2.142857e+02,    2.023810e+02,    0.000000e+00
    5308,   -2.023810e+02,    2.023810e+02,    0.000000e+00
    5309,   -1.904762e+02,    2.023810e+02,    0.000000e+00
    5310,   -1.785714e+02,    2.023810e+02,    0.000000e+00
    5311,   -1.666667e+02,    2.023810e+02,    0.000000e+00
    5312,   -1.547619e+02,    2.023810e+02,    0.000000e+00
    5313,   -1.428571e+02,    2.023810e+02,    0.000000e+00
    5314,   -1.309524e+02,    2.023810e+02,    0.000000e+00
    5315,   -1.190476e+02,    2.023810e+02,    0.000000e+00
    5316,   -1.071429e+02,    2.023810e+02,    0.000000e+00
    5317,   -9.523810e+01,    2.023810e+02,    0.000000e+00
    5318,   -8.333333e+01,    2.023810e+02,    0.000000e+00
    5319,   -7.142857e+01,    2.023810e+02,    0.000000e+00
    5320,   -5.952381e+01,    2.023810e+02,    0.000000e+00
    5321,   -4.761905e+01,    2.023810e+02,    0.000000e+00
    5322,   -3.571429e+01,    2.023810e+02,    0.000000e+00
    5323,   -2.380952e+01,    2.023810e+02,    0.000000e+00
    5324,   -1.190476e+01,    2.023810e+02,    0.000000e+00
    5325,   -2.380952e+02,    1.904762e+02,    0.000000e+00
    5326,   -2.261905e+02,    1.904762e+02,    0.000000e+00
    5327,   -2.142857e+02,    1.904762e+02,    0.000000e+00
    5328,   -2.023810e+02,    1.904762e+02,    0.000000e+00
    5329,   -1.904762e+02,    1.904762e+02,    0.000000e+00
    5330,   -1.785714e+02,    1.904762e+02,    0.000000e+00
    5331,   -1.666667e+02,    1.904762e+02,    0.000000e+00
    5332,   -1.547619e+02,    1.904762e+02,    0.000000e+00
    5333,   -1.428571e+02,    1.904762e+02,    0.000000e+00
    5334,   -1.309524e+02,    1.904762e+02,    0.000000e+00
    5335,   -1.190476e+02,    1.904762e+02,    0.000000e+00
    5336,   -1.071429e+02,    1.904762e+02,    0.000000e+00
    5337,   -9.523810e+01,    1.904762e+02,    0.000000e+00
    5338,   -8.333333e+01,    1.904762e+02,    0.000000e+00
    5339,   -7.142857e+01,    1.904762e+02,    0.000000e+00
    5340,   -5.952381e+01,    1.904762e+02,    0.000000e+00
    5341,   -4.761905e+01,    1.904762e+02,    0.000000e+00
    5342,   -3.571429e+01,    1.904762e+02,    0.000000e+00
    5343,   -2.380952e+01,    1.904762e+02,    0.000000e+00
    5344,   -1.190476e+01,    1.904762e+02,    0.000000e+00
    5345,   -2.380952e+02,    1.785714e+02,    0.000000e+00
    5346,   -2.261905e+02,    1.785714e+02,    0.000000e+00
    5347,   -2.142857e+02,    1.785714e+02,    0.000000e+00
    5348,   -2.023810e+02,    1.785714e+02,    0.000000e+00
    5349,   -1.904762e+02,    1.785714e+02,    0.000000e+00
    5350,   -1.785714e+02,    1.785714e+02,    0.000000e+00
    5351,   -1.666667e+02,    1.785714e+02,    0.000000e+00
    5352,   -1.547619e+02,    1.785714e+02,    0.000000e+00
    5353,   -1.428571e+02,    1.785714e+02,    0.000000e+00
    5354,   -1.309524e+02,    1.785714e+02,    0.000000e+00
    5355,   -1.190476e+02,    1.785714e+02,    0.000000e+00
    5356,   -1.071429e+02,    1.785714e+02,    0.000000e+00
    5357,   -9.523810e+01,    1.785714e+02,    0.000000e+00
    5358,   -8.333333e+01,    1.785714e+02,    0.000000e+00
    5359,   -7.142857e+01,    1.785714e+02,    0.000000e+00
    5360,   -5.952381e+01,    1.785714e+02,    0.000000e+00
    5361,   -4.761905e+01,    1.785714e+02,    0.000000e+00
    5362,   -3.571429e+01,    1.785714e+02,    0.000000e+00
    5363,   -2.380952e+01,    1.785714e+02,    0.000000e+00
    5364,   -1.190476e+01,    1.785714e+02,    0.000000e+00
    5365,   -2.380952e+02,    1.666667e+02,    0.000000e+00
    5366,   -2.261905e+02,    1.666667e+02,    0.000000e+00
    5367,   -2.142857e+02,    1.666667e+02,    0.000000e+00
    5368,   -2.023810e+02,    1.666667e+02,    0.000000e+00
    5369,   -1.904762e+02,    1.666667e+02,    0.000000e+00
    5370,   -1.785714e+02,    1.666667e+02,    0.000000e+00
    5371,   -1.666667e+02,    1.666667e+02,    0.000000e+00
    5372,   -1.547619e+02,    1.666667e+02,    0.000000e+00
    5373,   -1.428571e+02,    1.666667e+02,    0.000000e+00
    5374,   -1.309524e+02,    1.666667e+02,    0.000000e+00
    5375,   -1.190476e+02,    1.666667e+02,    0.000000e+00
    5376,   -1.071429e+02,    1.666667e+02,    0.000000e+00
    5377,   -9.523810e+01,    1.666667e+02,    0.000000e+00
    5378,   -8.333333e+01,    1.666667e+02,    0.000000e+00
    5379,   -7.142857e+01,    1.666667e+02,    0.000000e+00
    5380,   -5.952381e+01,    1.666667e+02,    0.000000e+00
    5381,   -4.761905e+01,    1.666667e+02,    0.000000e+00
    5382,   -3.571429e+01,    1.666667e+02,    0.000000e+00
    5383,   -2.380952e+01,    1.666667e+02,    0.000000e+00
    5384,   -1.190476e+01,    1.666667e+02,    0.000000e+00
    5385,   -2.380952e+02,    1.547619e+02,    0.000000e+00
    5386,   -2.261905e+02,    1.547619e+02,    0.000000e+00
    5387,   -2.142857e+02,    1.547619e+02,    0.000000e+00
    5388,   -2.023810e+02,    1.547619e+02,    0.000000e+00
    5389,   -1.904762e+02,    1.547619e+02,    0.000000e+00
    5390,   -1.785714e+02,    1.547619e+02,    0.000000e+00
    5391,   -1.666667e+02,    1.547619e+02,    0.000000e+00
    5392,   -1.547619e+02,    1.547619e+02,    0.000000e+00
    5393,   -1.428571e+02,    1.547619e+02,    0.000000e+00
    5394,   -1.309524e+02,    1.547619e+02,    0.000000e+00
    5395,   -1.190476e+02,    1.547619e+02,    0.000000e+00
    5396,   -1.071429e+02,    1.547619e+02,    0.000000e+00
    5397,   -9.523810e+01,    1.547619e+02,    0.000000e+00
    5398,   -8.333333e+01,    1.547619e+02,    0.000000e+00
    5399,   -7.142857e+01,    1.547619e+02,    0.000000e+00
    5400,   -5.952381e+01,    1.547619e+02,    0.000000e+00
    5401,   -4.761905e+01,    1.547619e+02,    0.000000e+00
    5402,   -3.571429e+01,    1.547619e+02,    0.000000e+00
    5403,   -2.380952e+01,    1.547619e+02,    0.000000e+00
    5404,   -1.190476e+01,    1.547619e+02,    0.000000e+00
    5405,   -2.380952e+02,    1.428571e+02,    0.000000e+00
    5406,   -2.261905e+02,    1.428571e+02,    0.000000e+00
    5407,   -2.142857e+02,    1.428571e+02,    0.000000e+00
    5408,   -2.023810e+02,    1.428571e+02,    0.000000e+00
    5409,   -1.904762e+02,    1.428571e+02,    0.000000e+00
    5410,   -1.785714e+02,    1.428571e+02,    0.000000e+00
    5411,   -1.666667e+02,    1.428571e+02,    0.000000e+00
    5412,   -1.547619e+02,    1.428571e+02,    0.000000e+00
    5413,   -1.428571e+02,    1.428571e+02,    0.000000e+00
    5414,   -1.309524e+02,    1.428571e+02,    0.000000e+00
    5415,   -1.190476e+02,    1.428571e+02,    0.000000e+00
    5416,   -1.071429e+02,    1.428571e+02,    0.000000e+00
    5417,   -9.523810e+01,    1.428571e+02,    0.000000e+00
    5418,   -8.333333e+01,    1.428571e+02,    0.000000e+00
    5419,   -7.142857e+01,    1.428571e+02,    0.000000e+00
    5420,   -5.952381e+01,    1.428571e+02,    0.000000e+00
    5421,   -4.761905e+01,    1.428571e+02,    0.000000e+00
    5422,   -3.571429e+01,    1.428571e+02,    0.000000e+00
    5423,   -2.380952e+01,    1.428571e+02,    0.000000e+00
    5424,   -1.190476e+01,    1.428571e+02,    0.000000e+00
    5425,   -2.380952e+02,    1.309524e+02,    0.000000e+00
    5426,   -2.261905e+02,    1.309524e+02,    0.000000e+00
    5427,   -2.142857e+02,    1.309524e+02,    0.000000e+00
    5428,   -2.023810e+02,    1.309524e+02,    0.000000e+00
    5429,   -1.904762e+02,    1.309524e+02,    0.000000e+00
    5430,   -1.785714e+02,    1.309524e+02,    0.000000e+00
    5431,   -1.666667e+02,    1.309524e+02,    0.000000e+00
    5432,   -1.547619e+02,    1.309524e+02,    0.000000e+00
    5433,   -1.428571e+02,    1.309524e+02,    0.000000e+00
    5434,   -1.309524e+02,    1.309524e+02,    0.000000e+00
    5435,   -1.190476e+02,    1.309524e+02,    0.000000e+00
    5436,   -1.071429e+02,    1.309524e+02,    0.000000e+00
    5437,   -9.523810e+01,    1.309524e+02,    0.000000e+00
    5438,   -8.333333e+01,    1.309524e+02,    0.000000e+00
    5439,   -7.142857e+01,    1.309524e+02,    0.000000e+00
    5440,   -5.952381e+01,    1.309524e+02,    0.000000e+00
    5441,   -4.761905e+01,    1.309524e+02,    0.000000e+00
    5442,   -3.571429e+01,    1.309524e+02,    0.000000e+00
    5443,   -2.380952e+01,    1.309524e+02,    0.000000e+00
    5444,   -1.190476e+01,    1.309524e+02,    0.000000e+00
    5445,   -2.380952e+02,    1.190476e+02,    0.000000e+00
    5446,   -2.261905e+02,    1.190476e+02,    0.000000e+00
    5447,   -2.142857e+02,    1.190476e+02,    0.000000e+00
    5448,   -2.023810e+02,    1.190476e+02,    0.000000e+00
    5449,   -1.904762e+02,    1.190476e+02,    0.000000e+00
    5450,   -1.785714e+02,    1.190476e+02,    0.000000e+00
    5451,   -1.666667e+02,    1.190476e+02,    0.000000e+00
    5452,   -1.547619e+02,    1.190476e+02,    0.000000e+00
    5453,   -1.428571e+02,    1.190476e+02,    0.000000e+00
    5454,   -1.309524e+02,    1.190476e+02,    0.000000e+00
    5455,   -1.190476e+02,    1.190476e+02,    0.000000e+00
    5456,   -1.071429e+02,    1.190476e+02,    0.000000e+00
    5457,   -9.523810e+01,    1.190476e+02,    0.000000e+00
    5458,   -8.333333e+01,    1.190476e+02,    0.000000e+00
    5459,   -7.142857e+01,    1.190476e+02,    0.000000e+00
    5460,   -5.952381e+01,    1.190476e+02,    0.000000e+00
    5461,   -4.761905e+01,    1.190476e+02,    0.000000e+00
    5462,   -3.571429e+01,    1.190476e+02,    0.000000e+00
    5463,   -2.380952e+01,    1.190476e+02,    0.000000e+00
    5464,   -1.190476e+01,    1.190476e+02,    0.000000e+00
    5465,   -2.380952e+02,    1.071429e+02,    0.000000e+00
    5466,   -2.261905e+02,    1.071429e+02,    0.000000e+00
    5467,   -2.142857e+02,    1.071429e+02,    0.000000e+00
    5468,   -2.023810e+02,    1.071429e+02,    0.000000e+00
    5469,   -1.904762e+02,    1.071429e+02,    0.000000e+00
    5470,   -1.785714e+02,    1.071429e+02,    0.000000e+00
    5471,   -1.666667e+02,    1.071429e+02,    0.000000e+00
    5472,   -1.547619e+02,    1.071429e+02,    0.000000e+00
    5473,   -1.428571e+02,    1.071429e+02,    0.000000e+00
    5474,   -1.309524e+02,    1.071429e+02,    0.000000e+00
    5475,   -1.190476e+02,    1.071429e+02,    0.000000e+00
    5476,   -1.071429e+02,    1.071429e+02,    0.000000e+00
    5477,   -9.523810e+01,    1.071429e+02,    0.000000e+00
    5478,   -8.333333e+01,    1.071429e+02,    0.000000e+00
    5479,   -7.142857e+01,    1.071429e+02,    0.000000e+00
    5480,   -5.952381e+01,    1.071429e+02,    0.000000e+00
    5481,   -4.761905e+01,    1.071429e+02,    0.000000e+00
    5482,   -3.571429e+01,    1.071429e+02,    0.000000e+00
    5483,   -2.380952e+01,    1.071429e+02,    0.000000e+00
    5484,   -1.190476e+01,    1.071429e+02,    0.000000e+00
    5485,   -2.380952e+02,    9.523810e+01,    0.000000e+00
    5486,   -2.261905e+02,    9.523810e+01,    0.000000e+00
    5487,   -2.142857e+02,    9.523810e+01,    0.000000e+00
    5488,   -2.023810e+02,    9.523810e+01,    0.000000e+00
    5489,   -1.904762e+02,    9.523810e+01,    0.000000e+00
    5490,   -1.785714e+02,    9.523810e+01,    0.000000e+00
    5491,   -1.666667e+02,    9.523810e+01,    0.000000e+00
    5492,   -1.547619e+02,    9.523810e+01,    0.000000e+00
    5493,   -1.428571e+02,    9.523810e+01,    0.000000e+00
    5494,   -1.309524e+02,    9.523810e+01,    0.000000e+00
    5495,   -1.190476e+02,    9.523810e+01,    0.000000e+00
    5496,   -1.071429e+02,    9.523810e+01,    0.000000e+00
    5497,   -9.523810e+01,    9.523810e+01,    0.000000e+00
    5498,   -8.333333e+01,    9.523810e+01,    0.000000e+00
    5499,   -7.142857e+01,    9.523810e+01,    0.000000e+00
    5500,   -5.952381e+01,    9.523810e+01,    0.000000e+00
    5501,   -4.761905e+01,    9.523810e+01,    0.000000e+00
    5502,   -3.571429e+01,    9.523810e+01,    0.000000e+00
    5503,   -2.380952e+01,    9.523810e+01,    0.000000e+00
    5504,   -1.190476e+01,    9.523810e+01,    0.000000e+00
    5505,   -2.380952e+02,    8.333333e+01,    0.000000e+00
    5506,   -2.261905e+02,    8.333333e+01,    0.000000e+00
    5507,   -2.142857e+02,    8.333333e+01,    0.000000e+00
    5508,   -2.023810e+02,    8.333333e+01,    0.000000e+00
    5509,   -1.904762e+02,    8.333333e+01,    0.000000e+00
    5510,   -1.785714e+02,    8.333333e+01,    0.000000e+00
    5511,   -1.666667e+02,    8.333333e+01,    0.000000e+00
    5512,   -1.547619e+02,    8.333333e+01,    0.000000e+00
    5513,   -1.428571e+02,    8.333333e+01,    0.000000e+00
    5514,   -1.309524e+02,    8.333333e+01,    0.000000e+00
    5515,   -1.190476e+02,    8.333333e+01,    0.000000e+00
    5516,   -1.071429e+02,    8.333333e+01,    0.000000e+00
    5517,   -9.523810e+01,    8.333333e+01,    0.000000e+00
    5518,   -8.333333e+01,    8.333333e+01,    0.000000e+00
    5519,   -7.142857e+01,    8.333333e+01,    0.000000e+00
    5520,   -5.952381e+01,    8.333333e+01,    0.000000e+00
    5521,   -4.761905e+01,    8.333333e+01,    0.000000e+00
    5522,   -3.571429e+01,    8.333333e+01,    0.000000e+00
    5523,   -2.380952e+01,    8.333333e+01,    0.000000e+00
    5524,   -1.190476e+01,    8.333333e+01,    0.000000e+00
    5525,   -2.380952e+02,    7.142857e+01,    0.000000e+00
    5526,   -2.261905e+02,    7.142857e+01,    0.000000e+00
    5527,   -2.142857e+02,    7.142857e+01,    0.000000e+00
    5528,   -2.023810e+02,    7.142857e+01,    0.000000e+00
    5529,   -1.904762e+02,    7.142857e+01,    0.000000e+00
    5530,   -1.785714e+02,    7.142857e+01,    0.000000e+00
    5531,   -1.666667e+02,    7.142857e+01,    0.000000e+00
    5532,   -1.547619e+02,    7.142857e+01,    0.000000e+00
    5533,   -1.428571e+02,    7.142857e+01,    0.000000e+00
    5534,   -1.309524e+02,    7.142857e+01,    0.000000e+00
    5535,   -1.190476e+02,    7.142857e+01,    0.000000e+00
    5536,   -1.071429e+02,    7.142857e+01,    0.000000e+00
    5537,   -9.523810e+01,    7.142857e+01,    0.000000e+00
    5538,   -8.333333e+01,    7.142857e+01,    0.000000e+00
    5539,   -7.142857e+01,    7.142857e+01,    0.000000e+00
    5540,   -5.952381e+01,    7.142857e+01,    0.000000e+00
    5541,   -4.761905e+01,    7.142857e+01,    0.000000e+00
    5542,   -3.571429e+01,    7.142857e+01,    0.000000e+00
    5543,   -2.380952e+01,    7.142857e+01,    0.000000e+00
    5544,   -1.190476e+01,    7.142857e+01,    0.000000e+00
    5545,   -2.380952e+02,    5.952381e+01,    0.000000e+00
    5546,   -2.261905e+02,    5.952381e+01,    0.000000e+00
    5547,   -2.142857e+02,    5.952381e+01,    0.000000e+00
    5548,   -2.023810e+02,    5.952381e+01,    0.000000e+00
    5549,   -1.904762e+02,    5.952381e+01,    0.000000e+00
    5550,   -1.785714e+02,    5.952381e+01,    0.000000e+00
    5551,   -1.666667e+02,    5.952381e+01,    0.000000e+00
    5552,   -1.547619e+02,    5.952381e+01,    0.000000e+00
    5553,   -1.428571e+02,    5.952381e+01,    0.000000e+00
    5554,   -1.309524e+02,    5.952381e+01,    0.000000e+00
    5555,   -1.190476e+02,    5.952381e+01,    0.000000e+00
    5556,   -1.071429e+02,    5.952381e+01,    0.000000e+00
    5557,   -9.523810e+01,    5.952381e+01,    0.000000e+00
    5558,   -8.333333e+01,    5.952381e+01,    0.000000e+00
    5559,   -7.142857e+01,    5.952381e+01,    0.000000e+00
    5560,   -5.952381e+01,    5.952381e+01,    0.000000e+00
    5561,   -4.761905e+01,    5.952381e+01,    0.000000e+00
    5562,   -3.571429e+01,    5.952381e+01,    0.000000e+00
    5563,   -2.380952e+01,    5.952381e+01,    0.000000e+00
    5564,   -1.190476e+01,    5.952381e+01,    0.000000e+00
    5565,   -2.380952e+02,    4.761905e+01,    0.000000e+00
    5566,   -2.261905e+02,    4.761905e+01,    0.000000e+00
    5567,   -2.142857e+02,    4.761905e+01,    0.000000e+00
    5568,   -2.023810e+02,    4.761905e+01,    0.000000e+00
    5569,   -1.904762e+02,    4.761905e+01,    0.000000e+00
    5570,   -1.785714e+02,    4.761905e+01,    0.000000e+00
    5571,   -1.666667e+02,    4.761905e+01,    0.000000e+00
    5572,   -1.547619e+02,    4.761905e+01,    0.000000e+00
    5573,   -1.428571e+02,    4.761905e+01,    0.000000e+00
    5574,   -1.309524e+02,    4.761905e+01,    0.000000e+00
    5575,   -1.190476e+02,    4.761905e+01,    0.000000e+00
    5576,   -1.071429e+02,    4.761905e+01,    0.000000e+00
    5577,   -9.523810e+01,    4.761905e+01,    0.000000e+00
    5578,   -8.333333e+01,    4.761905e+01,    0.000000e+00
    5579,   -7.142857e+01,    4.761905e+01,    0.000000e+00
    5580,   -5.952381e+01,    4.761905e+01,    0.000000e+00
    5581,   -4.761905e+01,    4.761905e+01,    0.000000e+00
    5582,   -3.571429e+01,    4.761905e+01,    0.000000e+00
    5583,   -2.380952e+01,    4.761905e+01,    0.000000e+00
    5584,   -1.190476e+01,    4.761905e+01,    0.000000e+00
    5585,   -2.380952e+02,    3.571429e+01,    0.000000e+00
    5586,   -2.261905e+02,    3.571429e+01,    0.000000e+00
    5587,   -2.142857e+02,    3.571429e+01,    0.000000e+00
    5588,   -2.023810e+02,    3.571429e+01,    0.000000e+00
    5589,   -1.904762e+02,    3.571429e+01,    0.000000e+00
    5590,   -1.785714e+02,    3.571429e+01,    0.000000e+00
    5591,   -1.666667e+02,    3.571429e+01,    0.000000e+00
    5592,   -1.547619e+02,    3.571429e+01,    0.000000e+00
    5593,   -1.428571e+02,    3.571429e+01,    0.000000e+00
    5594,   -1.309524e+02,    3.571429e+01,    0.000000e+00
    5595,   -1.190476e+02,    3.571429e+01,    0.000000e+00
    5596,   -1.071429e+02,    3.571429e+01,    0.000000e+00
    5597,   -9.523810e+01,    3.571429e+01,    0.000000e+00
    5598,   -8.333333e+01,    3.571429e+01,    0.000000e+00
    5599,   -7.142857e+01,    3.571429e+01,    0.000000e+00
    5600,   -5.952381e+01,    3.571429e+01,    0.000000e+00
    5601,   -4.761905e+01,    3.571429e+01,    0.000000e+00
    5602,   -3.571429e+01,    3.571429e+01,    0.000000e+00
    5603,   -2.380952e+01,    3.571429e+01,    0.000000e+00
    5604,   -1.190476e+01,    3.571429e+01,    0.000000e+00
    5605,   -2.380952e+02,    2.380952e+01,    0.000000e+00
    5606,   -2.261905e+02,    2.380952e+01,    0.000000e+00
    5607,   -2.142857e+02,    2.380952e+01,    0.000000e+00
    5608,   -2.023810e+02,    2.380952e+01,    0.000000e+00
    5609,   -1.904762e+02,    2.380952e+01,    0.000000e+00
    5610,   -1.785714e+02,    2.380952e+01,    0.000000e+00
    5611,   -1.666667e+02,    2.380952e+01,    0.000000e+00
    5612,   -1.547619e+02,    2.380952e+01,    0.000000e+00
    5613,   -1.428571e+02,    2.380952e+01,    0.000000e+00
    5614,   -1.309524e+02,    2.380952e+01,    0.000000e+00
    5615,   -1.190476e+02,    2.380952e+01,    0.000000e+00
    5616,   -1.071429e+02,    2.380952e+01,    0.000000e+00
    5617,   -9.523810e+01,    2.380952e+01,    0.000000e+00
    5618,   -8.333333e+01,    2.380952e+01,    0.000000e+00
    5619,   -7.142857e+01,    2.380952e+01,    0.000000e+00
    5620,   -5.952381e+01,    2.380952e+01,    0.000000e+00
    5621,   -4.761905e+01,    2.380952e+01,    0.000000e+00
    5622,   -3.571429e+01,    2.380952e+01,    0.000000e+00
    5623,   -2.380952e+01,    2.380952e+01,    0.000000e+00
    5624,   -1.190476e+01,    2.380952e+01,    0.000000e+00
    5625,   -2.380952e+02,    1.190476e+01,    0.000000e+00
    5626,   -2.261905e+02,    1.190476e+01,    0.000000e+00
    5627,   -2.142857e+02,    1.190476e+01,    0.000000e+00
    5628,   -2.023810e+02,    1.190476e+01,    0.000000e+00
    5629,   -1.904762e+02,    1.190476e+01,    0.000000e+00
    5630,   -1.785714e+02,    1.190476e+01,    0.000000e+00
    5631,   -1.666667e+02,    1.190476e+01,    0.000000e+00
    5632,   -1.547619e+02,    1.190476e+01,    0.000000e+00
    5633,   -1.428571e+02,    1.190476e+01,    0.000000e+00
    5634,   -1.309524e+02,    1.190476e+01,    0.000000e+00
    5635,   -1.190476e+02,    1.190476e+01,    0.000000e+00
    5636,   -1.071429e+02,    1.190476e+01,    0.000000e+00
    5637,   -9.523810e+01,    1.190476e+01,    0.000000e+00
    5638,   -8.333333e+01,    1.190476e+01,    0.000000e+00
    5639,   -7.142857e+01,    1.190476e+01,    0.000000e+00
    5640,   -5.952381e+01,    1.190476e+01,    0.000000e+00
    5641,   -4.761905e+01,    1.190476e+01,    0.000000e+00
    5642,   -3.571429e+01,    1.190476e+01,    0.000000e+00
    5643,   -2.380952e+01,    1.190476e+01,    0.000000e+00
    5644,   -1.190476e+01,    1.190476e+01,    0.000000e+00
    5645,    5.882353e+00,    0.000000e+00,   -5.000000e+00
    5646,    1.764706e+01,    0.000000e+00,   -5.000000e+00
    5647,    2.941176e+01,    0.000000e+00,   -5.000000e+00
    5648,    4.117647e+01,    0.000000e+00,   -5.000000e+00
    5649,    5.294118e+01,    0.000000e+00,   -5.000000e+00
    5650,    6.470588e+01,    0.000000e+00,   -5.000000e+00
    5651,    7.647059e+01,    0.000000e+00,   -5.000000e+00
    5652,    8.823529e+01,    0.000000e+00,   -5.000000e+00
    5653,    1.000000e+02,    0.000000e+00,   -5.000000e+00
    5654,    1.117647e+02,    0.000000e+00,   -5.000000e+00
    5655,    1.235294e+02,    0.000000e+00,   -5.000000e+00
    5656,    1.352941e+02,    0.000000e+00,   -5.000000e+00
    5657,    1.470588e+02,    0.000000e+00,   -5.000000e+00
    5658,    1.588235e+02,    0.000000e+00,   -5.000000e+00
    5659,    1.705882e+02,    0.000000e+00,   -5.000000e+00
    5660,    1.823529e+02,    0.000000e+00,   -5.000000e+00
    5661,    1.941176e+02,    0.000000e+00,   -5.000000e+00
    5662,    5.882353e+00,    2.500000e+02,   -5.000000e+00
    5663,    1.764706e+01,    2.500000e+02,   -5.000000e+00
    5664,    2.941176e+01,    2.500000e+02,   -5.000000e+00
    5665,    4.117647e+01,    2.500000e+02,   -5.000000e+00
    5666,    5.294118e+01,    2.500000e+02,   -5.000000e+00
    5667,    6.470588e+01,    2.500000e+02,   -5.000000e+00
    5668,    7.647059e+01,    2.500000e+02,   -5.000000e+00
    5669,    8.823529e+01,    2.500000e+02,   -5.000000e+00
    5670,    1.000000e+02,    2.500000e+02,   -5.000000e+00
    5671,    1.117647e+02,    2.500000e+02,   -5.000000e+00
    5672,    1.235294e+02,    2.500000e+02,   -5.000000e+00
    5673,    1.352941e+02,    2.500000e+02,   -5.000000e+00
    5674,    1.470588e+02,    2.500000e+02,   -5.000000e+00
    5675,    1.588235e+02,    2.500000e+02,   -5.000000e+00
    5676,    1.705882e+02,    2.500000e+02,   -5.000000e+00
    5677,    1.823529e+02,    2.500000e+02,   -5.000000e+00
    5678,    1.941176e+02,    2.500000e+02,   -5.000000e+00
    5679,    1.941176e+02,    2.380952e+02,   -5.000000e+00
    5680,    1.882353e+02,    2.440476e+02,   -5.000000e+00
    5681,    1.941176e+02,    2.261905e+02,   -5.000000e+00
    5682,    1.882353e+02,    2.321429e+02,   -5.000000e+00
    5683,    1.941176e+02,    2.142857e+02,   -5.000000e+00
    5684,    1.882353e+02,    2.202381e+02,   -5.000000e+00
    5685,    1.941176e+02,    2.023810e+02,   -5.000000e+00
    5686,    1.882353e+02,    2.083333e+02,   -5.000000e+00
    5687,    1.941176e+02,    1.904762e+02,   -5.000000e+00
    5688,    1.882353e+02,    1.964286e+02,   -5.000000e+00
    5689,    1.941176e+02,    1.785714e+02,   -5.000000e+00
    5690,    1.882353e+02,    1.845238e+02,   -5.000000e+00
    5691,    1.941176e+02,    1.666667e+02,   -5.000000e+00
    5692,    1.882353e+02,    1.726190e+02,   -5.000000e+00
    5693,    1.941176e+02,    1.547619e+02,   -5.000000e+00
    5694,    1.882353e+02,    1.607143e+02,   -5.000000e+00
    5695,    1.941176e+02,    1.428571e+02,   -5.000000e+00
    5696,    1.882353e+02,    1.488095e+02,   -5.000000e+00
    5697,    1.941176e+02,    1.309524e+02,   -5.000000e+00
    5698,    1.882353e+02,    1.369048e+02,   -5.000000e+00
    5699,    1.941176e+02,    1.190476e+02,   -5.000000e+00
    5700,    1.882353e+02,    1.250000e+02,   -5.000000e+00
    5701,    1.941176e+02,    1.071429e+02,   -5.000000e+00
    5702,    1.882353e+02,    1.130952e+02,   -5.000000e+00
    5703,    1.941176e+02,    9.523810e+01,   -5.000000e+00
    5704,    1.882353e+02,    1.011905e+02,   -5.000000e+00
    5705,    1.941176e+02,    8.333333e+01,   -5.000000e+00
    5706,    1.882353e+02,    8.928571e+01,   -5.000000e+00
    5707,    1.941176e+02,    7.142857e+01,   -5.000000e+00
    5708,    1.882353e+02,    7.738095e+01,   -5.000000e+00
    5709,    1.941176e+02,    5.952381e+01,   -5.000000e+00
    5710,    1.882353e+02,    6.547619e+01,   -5.000000e+00
    5711,    1.941176e+02,    4.761905e+01,   -5.000000e+00
    5712,    1.882353e+02,    5.357143e+01,   -5.000000e+00
    5713,    1.941176e+02,    3.571429e+01,   -5.000000e+00
    5714,    1.882353e+02,    4.166667e+01,   -5.000000e+00
    5715,    1.941176e+02,    2.380952e+01,   -5.000000e+00
    5716,    1.882353e+02,    2.976190e+01,   -5.000000e+00
    5717,    1.941176e+02,    1.190476e+01,   -5.000000e+00
    5718,    1.882353e+02,    1.785714e+01,   -5.000000e+00
    5719,    1.882353e+02,    5.952381e+00,   -5.000000e+00
    5720,    1.823529e+02,    2.380952e+02,   -5.000000e+00
    5721,    1.764706e+02,    2.440476e+02,   -5.000000e+00
    5722,    1.823529e+02,    2.261905e+02,   -5.000000e+00
    5723,    1.764706e+02,    2.321429e+02,   -5.000000e+00
    5724,    1.823529e+02,    2.142857e+02,   -5.000000e+00
    5725,    1.764706e+02,    2.202381e+02,   -5.000000e+00
    5726,    1.823529e+02,    2.023810e+02,   -5.000000e+00
    5727,    1.764706e+02,    2.083333e+02,   -5.000000e+00
    5728,    1.823529e+02,    1.904762e+02,   -5.000000e+00
    5729,    1.764706e+02,    1.964286e+02,   -5.000000e+00
    5730,    1.823529e+02,    1.785714e+02,   -5.000000e+00
    5731,    1.764706e+02,    1.845238e+02,   -5.000000e+00
    5732,    1.823529e+02,    1.666667e+02,   -5.000000e+00
    5733,    1.764706e+02,    1.726190e+02,   -5.000000e+00
    5734,    1.823529e+02,    1.547619e+02,   -5.000000e+00
    5735,    1.764706e+02,    1.607143e+02,   -5.000000e+00
    5736,    1.823529e+02,    1.428571e+02,   -5.000000e+00
    5737,    1.764706e+02,    1.488095e+02,   -5.000000e+00
    5738,    1.823529e+02,    1.309524e+02,   -5.000000e+00
    5739,    1.764706e+02,    1.369048e+02,   -5.000000e+00
    5740,    1.823529e+02,    1.190476e+02,   -5.000000e+00
    5741,    1.764706e+02,    1.250000e+02,   -5.000000e+00
    5742,    1.823529e+02,    1.071429e+02,   -5.000000e+00
    5743,    1.764706e+02,    1.130952e+02,   -5.000000e+00
    5744,    1.823529e+02,    9.523810e+01,   -5.000000e+00
    5745,    1.764706e+02,    1.011905e+02,   -5.000000e+00
    5746,    1.823529e+02,    8.333333e+01,   -5.000000e+00
    5747,    1.764706e+02,    8.928571e+01,   -5.000000e+00
    5748,    1.823529e+02,    7.142857e+01,   -5.000000e+00
    5749,    1.764706e+02,    7.738095e+01,   -5.000000e+00
    5750,    1.823529e+02,    5.952381e+01,   -5.000000e+00
    5751,    1.764706e+02,    6.547619e+01,   -5.000000e+00
    5752,    1.823529e+02,    4.761905e+01,   -5.000000e+00
    5753,    1.764706e+02,    5.357143e+01,   -5.000000e+00
    5754,    1.823529e+02,    3.571429e+01,   -5.000000e+00
    5755,    1.764706e+02,    4.166667e+01,   -5.000000e+00
    5756,    1.823529e+02,    2.380952e+01,   -5.000000e+00
    5757,    1.764706e+02,    2.976190e+01,   -5.000000e+00
    5758,    1.823529e+02,    1.190476e+01,   -5.000000e+00
    5759,    1.764706e+02,    1.785714e+01,   -5.000000e+00
    5760,    1.764706e+02,    5.952381e+00,   -5.000000e+00
    5761,    1.705882e+02,    2.380952e+02,   -5.000000e+00
    5762,    1.647059e+02,    2.440476e+02,   -5.000000e+00
    5763,    1.705882e+02,    2.261905e+02,   -5.000000e+00
    5764,    1.647059e+02,    2.321429e+02,   -5.000000e+00
    5765,    1.705882e+02,    2.142857e+02,   -5.000000e+00
    5766,    1.647059e+02,    2.202381e+02,   -5.000000e+00
    5767,    1.705882e+02,    2.023810e+02,   -5.000000e+00
    5768,    1.647059e+02,    2.083333e+02,   -5.000000e+00
    5769,    1.705882e+02,    1.904762e+02,   -5.000000e+00
    5770,    1.647059e+02,    1.964286e+02,   -5.000000e+00
    5771,    1.705882e+02,    1.785714e+02,   -5.000000e+00
    5772,    1.647059e+02,    1.845238e+02,   -5.000000e+00
    5773,    1.705882e+02,    1.666667e+02,   -5.000000e+00
    5774,    1.647059e+02,    1.726190e+02,   -5.000000e+00
    5775,    1.705882e+02,    1.547619e+02,   -5.000000e+00
    5776,    1.647059e+02,    1.607143e+02,   -5.000000e+00
    5777,    1.705882e+02,    1.428571e+02,   -5.000000e+00
    5778,    1.647059e+02,    1.488095e+02,   -5.000000e+00
    5779,    1.705882e+02,    1.309524e+02,   -5.000000e+00
    5780,    1.647059e+02,    1.369048e+02,   -5.000000e+00
    5781,    1.705882e+02,    1.190476e+02,   -5.000000e+00
    5782,    1.647059e+02,    1.250000e+02,   -5.000000e+00
    5783,    1.705882e+02,    1.071429e+02,   -5.000000e+00
    5784,    1.647059e+02,    1.130952e+02,   -5.000000e+00
    5785,    1.705882e+02,    9.523810e+01,   -5.000000e+00
    5786,    1.647059e+02,    1.011905e+02,   -5.000000e+00
    5787,    1.705882e+02,    8.333333e+01,   -5.000000e+00
    5788,    1.647059e+02,    8.928571e+01,   -5.000000e+00
    5789,    1.705882e+02,    7.142857e+01,   -5.000000e+00
    5790,    1.647059e+02,    7.738095e+01,   -5.000000e+00
    5791,    1.705882e+02,    5.952381e+01,   -5.000000e+00
    5792,    1.647059e+02,    6.547619e+01,   -5.000000e+00
    5793,    1.705882e+02,    4.761905e+01,   -5.000000e+00
    5794,    1.647059e+02,    5.357143e+01,   -5.000000e+00
    5795,    1.705882e+02,    3.571429e+01,   -5.000000e+00
    5796,    1.647059e+02,    4.166667e+01,   -5.000000e+00
    5797,    1.705882e+02,    2.380952e+01,   -5.000000e+00
    5798,    1.647059e+02,    2.976190e+01,   -5.000000e+00
    5799,    1.705882e+02,    1.190476e+01,   -5.000000e+00
    5800,    1.647059e+02,    1.785714e+01,   -5.000000e+00
    5801,    1.647059e+02,    5.952381e+00,   -5.000000e+00
    5802,    1.588235e+02,    2.380952e+02,   -5.000000e+00
    5803,    1.529412e+02,    2.440476e+02,   -5.000000e+00
    5804,    1.588235e+02,    2.261905e+02,   -5.000000e+00
    5805,    1.529412e+02,    2.321429e+02,   -5.000000e+00
    5806,    1.588235e+02,    2.142857e+02,   -5.000000e+00
    5807,    1.529412e+02,    2.202381e+02,   -5.000000e+00
    5808,    1.588235e+02,    2.023810e+02,   -5.000000e+00
    5809,    1.529412e+02,    2.083333e+02,   -5.000000e+00
    5810,    1.588235e+02,    1.904762e+02,   -5.000000e+00
    5811,    1.529412e+02,    1.964286e+02,   -5.000000e+00
    5812,    1.588235e+02,    1.785714e+02,   -5.000000e+00
    5813,    1.529412e+02,    1.845238e+02,   -5.000000e+00
    5814,    1.588235e+02,    1.666667e+02,   -5.000000e+00
    5815,    1.529412e+02,    1.726190e+02,   -5.000000e+00
    5816,    1.588235e+02,    1.547619e+02,   -5.000000e+00
    5817,    1.529412e+02,    1.607143e+02,   -5.000000e+00
    5818,    1.588235e+02,    1.428571e+02,   -5.000000e+00
    5819,    1.529412e+02,    1.488095e+02,   -5.000000e+00
    5820,    1.588235e+02,    1.309524e+02,   -5.000000e+00
    5821,    1.529412e+02,    1.369048e+02,   -5.000000e+00
    5822,    1.588235e+02,    1.190476e+02,   -5.000000e+00
    5823,    1.529412e+02,    1.250000e+02,   -5.000000e+00
    5824,    1.588235e+02,    1.071429e+02,   -5.000000e+00
    5825,    1.529412e+02,    1.130952e+02,   -5.000000e+00
    5826,    1.588235e+02,    9.523810e+01,   -5.000000e+00
    5827,    1.529412e+02,    1.011905e+02,   -5.000000e+00
    5828,    1.588235e+02,    8.333333e+01,   -5.000000e+00
    5829,    1.529412e+02,    8.928571e+01,   -5.000000e+00
    5830,    1.588235e+02,    7.142857e+01,   -5.000000e+00
    5831,    1.529412e+02,    7.738095e+01,   -5.000000e+00
    5832,    1.588235e+02,    5.952381e+01,   -5.000000e+00
    5833,    1.529412e+02,    6.547619e+01,   -5.000000e+00
    5834,    1.588235e+02,    4.761905e+01,   -5.000000e+00
    5835,    1.529412e+02,    5.357143e+01,   -5.000000e+00
    5836,    1.588235e+02,    3.571429e+01,   -5.000000e+00
    5837,    1.529412e+02,    4.166667e+01,   -5.000000e+00
    5838,    1.588235e+02,    2.380952e+01,   -5.000000e+00
    5839,    1.529412e+02,    2.976190e+01,   -5.000000e+00
    5840,    1.588235e+02,    1.190476e+01,   -5.000000e+00
    5841,    1.529412e+02,    1.785714e+01,   -5.000000e+00
    5842,    1.529412e+02,    5.952381e+00,   -5.000000e+00
    5843,    1.470588e+02,    2.380952e+02,   -5.000000e+00
    5844,    1.411765e+02,    2.440476e+02,   -5.000000e+00
    5845,    1.470588e+02,    2.261905e+02,   -5.000000e+00
    5846,    1.411765e+02,    2.321429e+02,   -5.000000e+00
    5847,    1.470588e+02,    2.142857e+02,   -5.000000e+00
    5848,    1.411765e+02,    2.202381e+02,   -5.000000e+00
    5849,    1.470588e+02,    2.023810e+02,   -5.000000e+00
    5850,    1.411765e+02,    2.083333e+02,   -5.000000e+00
    5851,    1.470588e+02,    1.904762e+02,   -5.000000e+00
    5852,    1.411765e+02,    1.964286e+02,   -5.000000e+00
    5853,    1.470588e+02,    1.785714e+02,   -5.000000e+00
    5854,    1.411765e+02,    1.845238e+02,   -5.000000e+00
    5855,    1.470588e+02,    1.666667e+02,   -5.000000e+00
    5856,    1.411765e+02,    1.726190e+02,   -5.000000e+00
    5857,    1.470588e+02,    1.547619e+02,   -5.000000e+00
    5858,    1.411765e+02,    1.607143e+02,   -5.000000e+00
    5859,    1.470588e+02,    1.428571e+02,   -5.000000e+00
    5860,    1.411765e+02,    1.488095e+02,   -5.000000e+00
    5861,    1.470588e+02,    1.309524e+02,   -5.000000e+00
    5862,    1.411765e+02,    1.369048e+02,   -5.000000e+00
    5863,    1.470588e+02,    1.190476e+02,   -5.000000e+00
    5864,    1.411765e+02,    1.250000e+02,   -5.000000e+00
    5865,    1.470588e+02,    1.071429e+02,   -5.000000e+00
    5866,    1.411765e+02,    1.130952e+02,   -5.000000e+00
    5867,    1.470588e+02,    9.523810e+01,   -5.000000e+00
    5868,    1.411765e+02,    1.011905e+02,   -5.000000e+00
    5869,    1.470588e+02,    8.333333e+01,   -5.000000e+00
    5870,    1.411765e+02,    8.928571e+01,   -5.000000e+00
    5871,    1.470588e+02,    7.142857e+01,   -5.000000e+00
    5872,    1.411765e+02,    7.738095e+01,   -5.000000e+00
    5873,    1.470588e+02,    5.952381e+01,   -5.000000e+00
    5874,    1.411765e+02,    6.547619e+01,   -5.000000e+00
    5875,    1.470588e+02,    4.761905e+01,   -5.000000e+00
    5876,    1.411765e+02,    5.357143e+01,   -5.000000e+00
    5877,    1.470588e+02,    3.571429e+01,   -5.000000e+00
    5878,    1.411765e+02,    4.166667e+01,   -5.000000e+00
    5879,    1.470588e+02,    2.380952e+01,   -5.000000e+00
    5880,    1.411765e+02,    2.976190e+01,   -5.000000e+00
    5881,    1.470588e+02,    1.190476e+01,   -5.000000e+00
    5882,    1.411765e+02,    1.785714e+01,   -5.000000e+00
    5883,    1.411765e+02,    5.952381e+00,   -5.000000e+00
    5884,    1.352941e+02,    2.380952e+02,   -5.000000e+00
    5885,    1.294118e+02,    2.440476e+02,   -5.000000e+00
    5886,    1.352941e+02,    2.261905e+02,   -5.000000e+00
    5887,    1.294118e+02,    2.321429e+02,   -5.000000e+00
    5888,    1.352941e+02,    2.142857e+02,   -5.000000e+00
    5889,    1.294118e+02,    2.202381e+02,   -5.000000e+00
    5890,    1.352941e+02,    2.023810e+02,   -5.000000e+00
    5891,    1.294118e+02,    2.083333e+02,   -5.000000e+00
    5892,    1.352941e+02,    1.904762e+02,   -5.000000e+00
    5893,    1.294118e+02,    1.964286e+02,   -5.000000e+00
    5894,    1.352941e+02,    1.785714e+02,   -5.000000e+00
    5895,    1.294118e+02,    1.845238e+02,   -5.000000e+00
    5896,    1.352941e+02,    1.666667e+02,   -5.000000e+00
    5897,    1.294118e+02,    1.726190e+02,   -5.000000e+00
    5898,    1.352941e+02,    1.547619e+02,   -5.000000e+00
    5899,    1.294118e+02,    1.607143e+02,   -5.000000e+00
    5900,    1.352941e+02,    1.428571e+02,   -5.000000e+00
    5901,    1.294118e+02,    1.488095e+02,   -5.000000e+00
    5902,    1.352941e+02,    1.309524e+02,   -5.000000e+00
    5903,    1.294118e+02,    1.369048e+02,   -5.000000e+00
    5904,    1.352941e+02,    1.190476e+02,   -5.000000e+00
    5905,    1.294118e+02,    1.250000e+02,   -5.000000e+00
    5906,    1.352941e+02,    1.071429e+02,   -5.000000e+00
    5907,    1.294118e+02,    1.130952e+02,   -5.000000e+00
    5908,    1.352941e+02,    9.523810e+01,   -5.000000e+00
    5909,    1.294118e+02,    1.011905e+02,   -5.000000e+00
    5910,    1.352941e+02,    8.333333e+01,   -5.000000e+00
    5911,    1.294118e+02,    8.928571e+01,   -5.000000e+00
    5912,    1.352941e+02,    7.142857e+01,   -5.000000e+00
    5913,    1.294118e+02,    7.738095e+01,   -5.000000e+00
    5914,    1.352941e+02,    5.952381e+01,   -5.000000e+00
    5915,    1.294118e+02,    6.547619e+01,   -5.000000e+00
    5916,    1.352941e+02,    4.761905e+01,   -5.000000e+00
    5917,    1.294118e+02,    5.357143e+01,   -5.000000e+00
    5918,    1.352941e+02,    3.571429e+01,   -5.000000e+00
    5919,    1.294118e+02,    4.166667e+01,   -5.000000e+00
    5920,    1.352941e+02,    2.380952e+01,   -5.000000e+00
    5921,    1.294118e+02,    2.976190e+01,   -5.000000e+00
    5922,    1.352941e+02,    1.190476e+01,   -5.000000e+00
    5923,    1.294118e+02,    1.785714e+01,   -5.000000e+00
    5924,    1.294118e+02,    5.952381e+00,   -5.000000e+00
    5925,    1.235294e+02,    2.380952e+02,   -5.000000e+00
    5926,    1.176471e+02,    2.440476e+02,   -5.000000e+00
    5927,    1.235294e+02,    2.261905e+02,   -5.000000e+00
    5928,    1.176471e+02,    2.321429e+02,   -5.000000e+00
    5929,    1.235294e+02,    2.142857e+02,   -5.000000e+00
    5930,    1.176471e+02,    2.202381e+02,   -5.000000e+00
    5931,    1.235294e+02,    2.023810e+02,   -5.000000e+00
    5932,    1.176471e+02,    2.083333e+02,   -5.000000e+00
    5933,    1.235294e+02,    1.904762e+02,   -5.000000e+00
    5934,    1.176471e+02,    1.964286e+02,   -5.000000e+00
    5935,    1.235294e+02,    1.785714e+02,   -5.000000e+00
    5936,    1.176471e+02,    1.845238e+02,   -5.000000e+00
    5937,    1.235294e+02,    1.666667e+02,   -5.000000e+00
    5938,    1.176471e+02,    1.726190e+02,   -5.000000e+00
    5939,    1.235294e+02,    1.547619e+02,   -5.000000e+00
    5940,    1.176471e+02,    1.607143e+02,   -5.000000e+00
    5941,    1.235294e+02,    1.428571e+02,   -5.000000e+00
    5942,    1.176471e+02,    1.488095e+02,   -5.000000e+00
    5943,    1.235294e+02,    1.309524e+02,   -5.000000e+00
    5944,    1.176471e+02,    1.369048e+02,   -5.000000e+00
    5945,    1.235294e+02,    1.190476e+02,   -5.000000e+00
    5946,    1.176471e+02,    1.250000e+02,   -5.000000e+00
    5947,    1.235294e+02,    1.071429e+02,   -5.000000e+00
    5948,    1.176471e+02,    1.130952e+02,   -5.000000e+00
    5949,    1.235294e+02,    9.523810e+01,   -5.000000e+00
    5950,    1.176471e+02,    1.011905e+02,   -5.000000e+00
    5951,    1.235294e+02,    8.333333e+01,   -5.000000e+00
    5952,    1.176471e+02,    8.928571e+01,   -5.000000e+00
    5953,    1.235294e+02,    7.142857e+01,   -5.000000e+00
    5954,    1.176471e+02,    7.738095e+01,   -5.000000e+00
    5955,    1.235294e+02,    5.952381e+01,   -5.000000e+00
    5956,    1.176471e+02,    6.547619e+01,   -5.000000e+00
    5957,    1.235294e+02,    4.761905e+01,   -5.000000e+00
    5958,    1.176471e+02,    5.357143e+01,   -5.000000e+00
    5959,    1.235294e+02,    3.571429e+01,   -5.000000e+00
    5960,    1.176471e+02,    4.166667e+01,   -5.000000e+00
    5961,    1.235294e+02,    2.380952e+01,   -5.000000e+00
    5962,    1.176471e+02,    2.976190e+01,   -5.000000e+00
    5963,    1.235294e+02,    1.190476e+01,   -5.000000e+00
    5964,    1.176471e+02,    1.785714e+01,   -5.000000e+00
    5965,    1.176471e+02,    5.952381e+00,   -5.000000e+00
    5966,    1.117647e+02,    2.380952e+02,   -5.000000e+00
    5967,    1.058824e+02,    2.440476e+02,   -5.000000e+00
    5968,    1.117647e+02,    2.261905e+02,   -5.000000e+00
    5969,    1.058824e+02,    2.321429e+02,   -5.000000e+00
    5970,    1.117647e+02,    2.142857e+02,   -5.000000e+00
    5971,    1.058824e+02,    2.202381e+02,   -5.000000e+00
    5972,    1.117647e+02,    2.023810e+02,   -5.000000e+00
    5973,    1.058824e+02,    2.083333e+02,   -5.000000e+00
    5974,    1.117647e+02,    1.904762e+02,   -5.000000e+00
    5975,    1.058824e+02,    1.964286e+02,   -5.000000e+00
    5976,    1.117647e+02,    1.785714e+02,   -5.000000e+00
    5977,    1.058824e+02,    1.845238e+02,   -5.000000e+00
    5978,    1.117647e+02,    1.666667e+02,   -5.000000e+00
    5979,    1.058824e+02,    1.726190e+02,   -5.000000e+00
    5980,    1.117647e+02,    1.547619e+02,   -5.000000e+00
    5981,    1.058824e+02,    1.607143e+02,   -5.000000e+00
    5982,    1.117647e+02,    1.428571e+02,   -5.000000e+00
    5983,    1.058824e+02,    1.488095e+02,   -5.000000e+00
    5984,    1.117647e+02,    1.309524e+02,   -5.000000e+00
    5985,    1.058824e+02,    1.369048e+02,   -5.000000e+00
    5986,    1.117647e+02,    1.190476e+02,   -5.000000e+00
    5987,    1.058824e+02,    1.250000e+02,   -5.000000e+00
    5988,    1.117647e+02,    1.071429e+02,   -5.000000e+00
    5989,    1.058824e+02,    1.130952e+02,   -5.000000e+00
    5990,    1.117647e+02,    9.523810e+01,   -5.000000e+00
    5991,    1.058824e+02,    1.011905e+02,   -5.000000e+00
    5992,    1.117647e+02,    8.333333e+01,   -5.000000e+00
    5993,    1.058824e+02,    8.928571e+01,   -5.000000e+00
    5994,    1.117647e+02,    7.142857e+01,   -5.000000e+00
    5995,    1.058824e+02,    7.738095e+01,   -5.000000e+00
    5996,    1.117647e+02,    5.952381e+01,   -5.000000e+00
    5997,    1.058824e+02,    6.547619e+01,   -5.000000e+00
    5998,    1.117647e+02,    4.761905e+01,   -5.000000e+00
    5999,    1.058824e+02,    5.357143e+01,   -5.000000e+00
    6000,    1.117647e+02,    3.571429e+01,   -5.000000e+00
    6001,    1.058824e+02,    4.166667e+01,   -5.000000e+00
    6002,    1.117647e+02,    2.380952e+01,   -5.000000e+00
    6003,    1.058824e+02,    2.976190e+01,   -5.000000e+00
    6004,    1.117647e+02,    1.190476e+01,   -5.000000e+00
    6005,    1.058824e+02,    1.785714e+01,   -5.000000e+00
    6006,    1.058824e+02,    5.952381e+00,   -5.000000e+00
    6007,    1.000000e+02,    2.380952e+02,   -5.000000e+00
    6008,    9.411765e+01,    2.440476e+02,   -5.000000e+00
    6009,    1.000000e+02,    2.261905e+02,   -5.000000e+00
    6010,    9.411765e+01,    2.321429e+02,   -5.000000e+00
    6011,    1.000000e+02,    2.142857e+02,   -5.000000e+00
    6012,    9.411765e+01,    2.202381e+02,   -5.000000e+00
    6013,    1.000000e+02,    2.023810e+02,   -5.000000e+00
    6014,    9.411765e+01,    2.083333e+02,   -5.000000e+00
    6015,    1.000000e+02,    1.904762e+02,   -5.000000e+00
    6016,    9.411765e+01,    1.964286e+02,   -5.000000e+00
    6017,    1.000000e+02,    1.785714e+02,   -5.000000e+00
    6018,    9.411765e+01,    1.845238e+02,   -5.000000e+00
    6019,    1.000000e+02,    1.666667e+02,   -5.000000e+00
    6020,    9.411765e+01,    1.726190e+02,   -5.000000e+00
    6021,    1.000000e+02,    1.547619e+02,   -5.000000e+00
    6022,    9.411765e+01,    1.607143e+02,   -5.000000e+00
    6023,    1.000000e+02,    1.428571e+02,   -5.000000e+00
    6024,    9.411765e+01,    1.488095e+02,   -5.000000e+00
    6025,    1.000000e+02,    1.309524e+02,   -5.000000e+00
    6026,    9.411765e+01,    1.369048e+02,   -5.000000e+00
    6027,    1.000000e+02,    1.190476e+02,   -5.000000e+00
    6028,    9.411765e+01,    1.250000e+02,   -5.000000e+00
    6029,    1.000000e+02,    1.071429e+02,   -5.000000e+00
    6030,    9.411765e+01,    1.130952e+02,   -5.000000e+00
    6031,    1.000000e+02,    9.523810e+01,   -5.000000e+00
    6032,    9.411765e+01,    1.011905e+02,   -5.000000e+00
    6033,    1.000000e+02,    8.333333e+01,   -5.000000e+00
    6034,    9.411765e+01,    8.928571e+01,   -5.000000e+00
    6035,    1.000000e+02,    7.142857e+01,   -5.000000e+00
    6036,    9.411765e+01,    7.738095e+01,   -5.000000e+00
    6037,    1.000000e+02,    5.952381e+01,   -5.000000e+00
    6038,    9.411765e+01,    6.547619e+01,   -5.000000e+00
    6039,    1.000000e+02,    4.761905e+01,   -5.000000e+00
    6040,    9.411765e+01,    5.357143e+01,   -5.000000e+00
    6041,    1.000000e+02,    3.571429e+01,   -5.000000e+00
    6042,    9.411765e+01,    4.166667e+01,   -5.000000e+00
    6043,    1.000000e+02,    2.380952e+01,   -5.000000e+00
    6044,    9.411765e+01,    2.976190e+01,   -5.000000e+00
    6045,    1.000000e+02,    1.190476e+01,   -5.000000e+00
    6046,    9.411765e+01,    1.785714e+01,   -5.000000e+00
    6047,    9.411765e+01,    5.952381e+00,   -5.000000e+00
    6048,    8.823529e+01,    2.380952e+02,   -5.000000e+00
    6049,    8.235294e+01,    2.440476e+02,   -5.000000e+00
    6050,    8.823529e+01,    2.261905e+02,   -5.000000e+00
    6051,    8.235294e+01,    2.321429e+02,   -5.000000e+00
    6052,    8.823529e+01,    2.142857e+02,   -5.000000e+00
    6053,    8.235294e+01,    2.202381e+02,   -5.000000e+00
    6054,    8.823529e+01,    2.023810e+02,   -5.000000e+00
    6055,    8.235294e+01,    2.083333e+02,   -5.000000e+00
    6056,    8.823529e+01,    1.904762e+02,   -5.000000e+00
    6057,    8.235294e+01,    1.964286e+02,   -5.000000e+00
    6058,    8.823529e+01,    1.785714e+02,   -5.000000e+00
    6059,    8.235294e+01,    1.845238e+02,   -5.000000e+00
    6060,    8.823529e+01,    1.666667e+02,   -5.000000e+00
    6061,    8.235294e+01,    1.726190e+02,   -5.000000e+00
    6062,    8.823529e+01,    1.547619e+02,   -5.000000e+00
    6063,    8.235294e+01,    1.607143e+02,   -5.000000e+00
    6064,    8.823529e+01,    1.428571e+02,   -5.000000e+00
    6065,    8.235294e+01,    1.488095e+02,   -5.000000e+00
    6066,    8.823529e+01,    1.309524e+02,   -5.000000e+00
    6067,    8.235294e+01,    1.369048e+02,   -5.000000e+00
    6068,    8.823529e+01,    1.190476e+02,   -5.000000e+00
    6069,    8.235294e+01,    1.250000e+02,   -5.000000e+00
    6070,    8.823529e+01,    1.071429e+02,   -5.000000e+00
    6071,    8.235294e+01,    1.130952e+02,   -5.000000e+00
    6072,    8.823529e+01,    9.523810e+01,   -5.000000e+00
    6073,    8.235294e+01,    1.011905e+02,   -5.000000e+00
    6074,    8.823529e+01,    8.333333e+01,   -5.000000e+00
    6075,    8.235294e+01,    8.928571e+01,   -5.000000e+00
    6076,    8.823529e+01,    7.142857e+01,   -5.000000e+00
    6077,    8.235294e+01,    7.738095e+01,   -5.000000e+00
    6078,    8.823529e+01,    5.952381e+01,   -5.000000e+00
    6079,    8.235294e+01,    6.547619e+01,   -5.000000e+00
    6080,    8.823529e+01,    4.761905e+01,   -5.000000e+00
    6081,    8.235294e+01,    5.357143e+01,   -5.000000e+00
    6082,    8.823529e+01,    3.571429e+01,   -5.000000e+00
    6083,    8.235294e+01,    4.166667e+01,   -5.000000e+00
    6084,    8.823529e+01,    2.380952e+01,   -5.000000e+00
    6085,    8.235294e+01,    2.976190e+01,   -5.000000e+00
    6086,    8.823529e+01,    1.190476e+01,   -5.000000e+00
    6087,    8.235294e+01,    1.785714e+01,   -5.000000e+00
    6088,    8.235294e+01,    5.952381e+00,   -5.000000e+00
    6089,    7.647059e+01,    2.380952e+02,   -5.000000e+00
    6090,    7.058824e+01,    2.440476e+02,   -5.000000e+00
    6091,    7.647059e+01,    2.261905e+02,   -5.000000e+00
    6092,    7.058824e+01,    2.321429e+02,   -5.000000e+00
    6093,    7.647059e+01,    2.142857e+02,   -5.000000e+00
    6094,    7.058824e+01,    2.202381e+02,   -5.000000e+00
    6095,    7.647059e+01,    2.023810e+02,   -5.000000e+00
    6096,    7.058824e+01,    2.083333e+02,   -5.000000e+00
    6097,    7.647059e+01,    1.904762e+02,   -5.000000e+00
    6098,    7.058824e+01,    1.964286e+02,   -5.000000e+00
    6099,    7.647059e+01,    1.785714e+02,   -5.000000e+00
    6100,    7.058824e+01,    1.845238e+02,   -5.000000e+00
    6101,    7.647059e+01,    1.666667e+02,   -5.000000e+00
    6102,    7.058824e+01,    1.726190e+02,   -5.000000e+00
    6103,    7.647059e+01,    1.547619e+02,   -5.000000e+00
    6104,    7.058824e+01,    1.607143e+02,   -5.000000e+00
    6105,    7.647059e+01,    1.428571e+02,   -5.000000e+00
    6106,    7.058824e+01,    1.488095e+02,   -5.000000e+00
    6107,    7.647059e+01,    1.309524e+02,   -5.000000e+00
    6108,    7.058824e+01,    1.369048e+02,   -5.000000e+00
    6109,    7.647059e+01,    1.190476e+02,   -5.000000e+00
    6110,    7.058824e+01,    1.250000e+02,   -5.000000e+00
    6111,    7.647059e+01,    1.071429e+02,   -5.000000e+00
    6112,    7.058824e+01,    1.130952e+02,   -5.000000e+00
    6113,    7.647059e+01,    9.523810e+01,   -5.000000e+00
    6114,    7.058824e+01,    1.011905e+02,   -5.000000e+00
    6115,    7.647059e+01,    8.333333e+01,   -5.000000e+00
    6116,    7.058824e+01,    8.928571e+01,   -5.000000e+00
    6117,    7.647059e+01,    7.142857e+01,   -5.000000e+00
    6118,    7.058824e+01,    7.738095e+01,   -5.000000e+00
    6119,    7.647059e+01,    5.952381e+01,   -5.000000e+00
    6120,    7.058824e+01,    6.547619e+01,   -5.000000e+00
    6121,    7.647059e+01,    4.761905e+01,   -5.000000e+00
    6122,    7.058824e+01,    5.357143e+01,   -5.000000e+00
    6123,    7.647059e+01,    3.571429e+01,   -5.000000e+00
    6124,    7.058824e+01,    4.166667e+01,   -5.000000e+00
    6125,    7.647059e+01,    2.380952e+01,   -5.000000e+00
    6126,    7.058824e+01,    2.976190e+01,   -5.000000e+00
    6127,    7.647059e+01,    1.190476e+01,   -5.000000e+00
    6128,    7.058824e+01,    1.785714e+01,   -5.000000e+00
    6129,    7.058824e+01,    5.952381e+00,   -5.000000e+00
    6130,    6.470588e+01,    2.380952e+02,   -5.000000e+00
    6131,    5.882353e+01,    2.440476e+02,   -5.000000e+00
    6132,    6.470588e+01,    2.261905e+02,   -5.000000e+00
    6133,    5.882353e+01,    2.321429e+02,   -5.000000e+00
    6134,    6.470588e+01,    2.142857e+02,   -5.000000e+00
    6135,    5.882353e+01,    2.202381e+02,   -5.000000e+00
    6136,    6.470588e+01,    2.023810e+02,   -5.000000e+00
    6137,    5.882353e+01,    2.083333e+02,   -5.000000e+00
    6138,    6.470588e+01,    1.904762e+02,   -5.000000e+00
    6139,    5.882353e+01,    1.964286e+02,   -5.000000e+00
    6140,    6.470588e+01,    1.785714e+02,   -5.000000e+00
    6141,    5.882353e+01,    1.845238e+02,   -5.000000e+00
    6142,    6.470588e+01,    1.666667e+02,   -5.000000e+00
    6143,    5.882353e+01,    1.726190e+02,   -5.000000e+00
    6144,    6.470588e+01,    1.547619e+02,   -5.000000e+00
    6145,    5.882353e+01,    1.607143e+02,   -5.000000e+00
    6146,    6.470588e+01,    1.428571e+02,   -5.000000e+00
    6147,    5.882353e+01,    1.488095e+02,   -5.000000e+00
    6148,    6.470588e+01,    1.309524e+02,   -5.000000e+00
    6149,    5.882353e+01,    1.369048e+02,   -5.000000e+00
    6150,    6.470588e+01,    1.190476e+02,   -5.000000e+00
    6151,    5.882353e+01,    1.250000e+02,   -5.000000e+00
    6152,    6.470588e+01,    1.071429e+02,   -5.000000e+00
    6153,    5.882353e+01,    1.130952e+02,   -5.000000e+00
    6154,    6.470588e+01,    9.523810e+01,   -5.000000e+00
    6155,    5.882353e+01,    1.011905e+02,   -5.000000e+00
    6156,    6.470588e+01,    8.333333e+01,   -5.000000e+00
    6157,    5.882353e+01,    8.928571e+01,   -5.000000e+00
    6158,    6.470588e+01,    7.142857e+01,   -5.000000e+00
    6159,    5.882353e+01,    7.738095e+01,   -5.000000e+00
    6160,    6.470588e+01,    5.952381e+01,   -5.000000e+00
    6161,    5.882353e+01,    6.547619e+01,   -5.000000e+00
    6162,    6.470588e+01,    4.761905e+01,   -5.000000e+00
    6163,    5.882353e+01,    5.357143e+01,   -5.000000e+00
    6164,    6.470588e+01,    3.571429e+01,   -5.000000e+00
    6165,    5.882353e+01,    4.166667e+01,   -5.000000e+00
    6166,    6.470588e+01,    2.380952e+01,   -5.000000e+00
    6167,    5.882353e+01,    2.976190e+01,   -5.000000e+00
    6168,    6.470588e+01,    1.190476e+01,   -5.000000e+00
    6169,    5.882353e+01,    1.785714e+01,   -5.000000e+00
    6170,    5.882353e+01,    5.952381e+00,   -5.000000e+00
    6171,    5.294118e+01,    2.380952e+02,   -5.000000e+00
    6172,    4.705882e+01,    2.440476e+02,   -5.000000e+00
    6173,    5.294118e+01,    2.261905e+02,   -5.000000e+00
    6174,    4.705882e+01,    2.321429e+02,   -5.000000e+00
    6175,    5.294118e+01,    2.142857e+02,   -5.000000e+00
    6176,    4.705882e+01,    2.202381e+02,   -5.000000e+00
    6177,    5.294118e+01,    2.023810e+02,   -5.000000e+00
    6178,    4.705882e+01,    2.083333e+02,   -5.000000e+00
    6179,    5.294118e+01,    1.904762e+02,   -5.000000e+00
    6180,    4.705882e+01,    1.964286e+02,   -5.000000e+00
    6181,    5.294118e+01,    1.785714e+02,   -5.000000e+00
    6182,    4.705882e+01,    1.845238e+02,   -5.000000e+00
    6183,    5.294118e+01,    1.666667e+02,   -5.000000e+00
    6184,    4.705882e+01,    1.726190e+02,   -5.000000e+00
    6185,    5.294118e+01,    1.547619e+02,   -5.000000e+00
    6186,    4.705882e+01,    1.607143e+02,   -5.000000e+00
    6187,    5.294118e+01,    1.428571e+02,   -5.000000e+00
    6188,    4.705882e+01,    1.488095e+02,   -5.000000e+00
    6189,    5.294118e+01,    1.309524e+02,   -5.000000e+00
    6190,    4.705882e+01,    1.369048e+02,   -5.000000e+00
    6191,    5.294118e+01,    1.190476e+02,   -5.000000e+00
    6192,    4.705882e+01,    1.250000e+02,   -5.000000e+00
    6193,    5.294118e+01,    1.071429e+02,   -5.000000e+00
    6194,    4.705882e+01,    1.130952e+02,   -5.000000e+00
    6195,    5.294118e+01,    9.523810e+01,   -5.000000e+00
    6196,    4.705882e+01,    1.011905e+02,   -5.000000e+00
    6197,    5.294118e+01,    8.333333e+01,   -5.000000e+00
    6198,    4.705882e+01,    8.928571e+01,   -5.000000e+00
    6199,    5.294118e+01,    7.142857e+01,   -5.000000e+00
    6200,    4.705882e+01,    7.738095e+01,   -5.000000e+00
    6201,    5.294118e+01,    5.952381e+01,   -5.000000e+00
    6202,    4.705882e+01,    6.547619e+01,   -5.000000e+00
    6203,    5.294118e+01,    4.761905e+01,   -5.000000e+00
    6204,    4.705882e+01,    5.357143e+01,   -5.000000e+00
    6205,    5.294118e+01,    3.571429e+01,   -5.000000e+00
    6206,    4.705882e+01,    4.166667e+01,   -5.000000e+00
    6207,    5.294118e+01,    2.380952e+01,   -5.000000e+00
    6208,    4.705882e+01,    2.976190e+01,   -5.000000e+00
    6209,    5.294118e+01,    1.190476e+01,   -5.000000e+00
    6210,    4.705882e+01,    1.785714e+01,   -5.000000e+00
    6211,    4.705882e+01,    5.952381e+00,   -5.000000e+00
    6212,    4.117647e+01,    2.380952e+02,   -5.000000e+00
    6213,    3.529412e+01,    2.440476e+02,   -5.000000e+00
    6214,    4.117647e+01,    2.261905e+02,   -5.000000e+00
    6215,    3.529412e+01,    2.321429e+02,   -5.000000e+00
    6216,    4.117647e+01,    2.142857e+02,   -5.000000e+00
    6217,    3.529412e+01,    2.202381e+02,   -5.000000e+00
    6218,    4.117647e+01,    2.023810e+02,   -5.000000e+00
    6219,    3.529412e+01,    2.083333e+02,   -5.000000e+00
    6220,    4.117647e+01,    1.904762e+02,   -5.000000e+00
    6221,    3.529412e+01,    1.964286e+02,   -5.000000e+00
    6222,    4.117647e+01,    1.785714e+02,   -5.000000e+00
    6223,    3.529412e+01,    1.845238e+02,   -5.000000e+00
    6224,    4.117647e+01,    1.666667e+02,   -5.000000e+00
    6225,    3.529412e+01,    1.726190e+02,   -5.000000e+00
    6226,    4.117647e+01,    1.547619e+02,   -5.000000e+00
    6227,    3.529412e+01,    1.607143e+02,   -5.000000e+00
    6228,    4.117647e+01,    1.428571e+02,   -5.000000e+00
    6229,    3.529412e+01,    1.488095e+02,   -5.000000e+00
    6230,    4.117647e+01,    1.309524e+02,   -5.000000e+00
    6231,    3.529412e+01,    1.369048e+02,   -5.000000e+00
    6232,    4.117647e+01,    1.190476e+02,   -5.000000e+00
    6233,    3.529412e+01,    1.250000e+02,   -5.000000e+00
    6234,    4.117647e+01,    1.071429e+02,   -5.000000e+00
    6235,    3.529412e+01,    1.130952e+02,   -5.000000e+00
    6236,    4.117647e+01,    9.523810e+01,   -5.000000e+00
    6237,    3.529412e+01,    1.011905e+02,   -5.000000e+00
    6238,    4.117647e+01,    8.333333e+01,   -5.000000e+00
    6239,    3.529412e+01,    8.928571e+01,   -5.000000e+00
    6240,    4.117647e+01,    7.142857e+01,   -5.000000e+00
    6241,    3.529412e+01,    7.738095e+01,   -5.000000e+00
    6242,    4.117647e+01,    5.952381e+01,   -5.000000e+00
    6243,    3.529412e+01,    6.547619e+01,   -5.000000e+00
    6244,    4.117647e+01,    4.761905e+01,   -5.000000e+00
    6245,    3.529412e+01,    5.357143e+01,   -5.000000e+00
    6246,    4.117647e+01,    3.571429e+01,   -5.000000e+00
    6247,    3.529412e+01,    4.166667e+01,   -5.000000e+00
    6248,    4.117647e+01,    2.380952e+01,   -5.000000e+00
    6249,    3.529412e+01,    2.976190e+01,   -5.000000e+00
    6250,    4.117647e+01,    1.190476e+01,   -5.000000e+00
    6251,    3.529412e+01,    1.785714e+01,   -5.000000e+00
    6252,    3.529412e+01,    5.952381e+00,   -5.000000e+00
    6253,    2.941176e+01,    2.380952e+02,   -5.000000e+00
    6254,    2.352941e+01,    2.440476e+02,   -5.000000e+00
    6255,    2.941176e+01,    2.261905e+02,   -5.000000e+00
    6256,    2.352941e+01,    2.321429e+02,   -5.000000e+00
    6257,    2.941176e+01,    2.142857e+02,   -5.000000e+00
    6258,    2.352941e+01,    2.202381e+02,   -5.000000e+00
    6259,    2.941176e+01,    2.023810e+02,   -5.000000e+00
    6260,    2.352941e+01,    2.083333e+02,   -5.000000e+00
    6261,    2.941176e+01,    1.904762e+02,   -5.000000e+00
    6262,    2.352941e+01,    1.964286e+02,   -5.000000e+00
    6263,    2.941176e+01,    1.785714e+02,   -5.000000e+00
    6264,    2.352941e+01,    1.845238e+02,   -5.000000e+00
    6265,    2.941176e+01,    1.666667e+02,   -5.000000e+00
    6266,    2.352941e+01,    1.726190e+02,   -5.000000e+00
    6267,    2.941176e+01,    1.547619e+02,   -5.000000e+00
    6268,    2.352941e+01,    1.607143e+02,   -5.000000e+00
    6269,    2.941176e+01,    1.428571e+02,   -5.000000e+00
    6270,    2.352941e+01,    1.488095e+02,   -5.000000e+00
    6271,    2.941176e+01,    1.309524e+02,   -5.000000e+00
    6272,    2.352941e+01,    1.369048e+02,   -5.000000e+00
    6273,    2.941176e+01,    1.190476e+02,   -5.000000e+00
    6274,    2.352941e+01,    1.250000e+02,   -5.000000e+00
    6275,    2.941176e+01,    1.071429e+02,   -5.000000e+00
    6276,    2.352941e+01,    1.130952e+02,   -5.000000e+00
    6277,    2.941176e+01,    9.523810e+01,   -5.000000e+00
    6278,    2.352941e+01,    1.011905e+02,   -5.000000e+00
    6279,    2.941176e+01,    8.333333e+01,   -5.000000e+00
    6280,    2.352941e+01,    8.928571e+01,   -5.000000e+00
    6281,    2.941176e+01,    7.142857e+01,   -5.000000e+00
    6282,    2.352941e+01,    7.738095e+01,   -5.000000e+00
    6283,    2.941176e+01,    5.952381e+01,   -5.000000e+00
    6284,    2.352941e+01,    6.547619e+01,   -5.000000e+00
    6285,    2.941176e+01,    4.761905e+01,   -5.000000e+00
    6286,    2.352941e+01,    5.357143e+01,   -5.000000e+00
    6287,    2.941176e+01,    3.571429e+01,   -5.000000e+00
    6288,    2.352941e+01,    4.166667e+01,   -5.000000e+00
    6289,    2.941176e+01,    2.380952e+01,   -5.000000e+00
    6290,    2.352941e+01,    2.976190e+01,   -5.000000e+00
    6291,    2.941176e+01,    1.190476e+01,   -5.000000e+00
    6292,    2.352941e+01,    1.785714e+01,   -5.000000e+00
    6293,    2.352941e+01,    5.952381e+00,   -5.000000e+00
    6294,    1.764706e+01,    2.380952e+02,   -5.000000e+00
    6295,    1.176471e+01,    2.440476e+02,   -5.000000e+00
    6296,    1.764706e+01,    2.261905e+02,   -5.000000e+00
    6297,    1.176471e+01,    2.321429e+02,   -5.000000e+00
    6298,    1.764706e+01,    2.142857e+02,   -5.000000e+00
    6299,    1.176471e+01,    2.202381e+02,   -5.000000e+00
    6300,    1.764706e+01,    2.023810e+02,   -5.000000e+00
    6301,    1.176471e+01,    2.083333e+02,   -5.000000e+00
    6302,    1.764706e+01,    1.904762e+02,   -5.000000e+00
    6303,    1.176471e+01,    1.964286e+02,   -5.000000e+00
    6304,    1.764706e+01,    1.785714e+02,   -5.000000e+00
    6305,    1.176471e+01,    1.845238e+02,   -5.000000e+00
    6306,    1.764706e+01,    1.666667e+02,   -5.000000e+00
    6307,    1.176471e+01,    1.726190e+02,   -5.000000e+00
    6308,    1.764706e+01,    1.547619e+02,   -5.000000e+00
    6309,    1.176471e+01,    1.607143e+02,   -5.000000e+00
    6310,    1.764706e+01,    1.428571e+02,   -5.000000e+00
    6311,    1.176471e+01,    1.488095e+02,   -5.000000e+00
    6312,    1.764706e+01,    1.309524e+02,   -5.000000e+00
    6313,    1.176471e+01,    1.369048e+02,   -5.000000e+00
    6314,    1.764706e+01,    1.190476e+02,   -5.000000e+00
    6315,    1.176471e+01,    1.250000e+02,   -5.000000e+00
    6316,    1.764706e+01,    1.071429e+02,   -5.000000e+00
    6317,    1.176471e+01,    1.130952e+02,   -5.000000e+00
    6318,    1.764706e+01,    9.523810e+01,   -5.000000e+00
    6319,    1.176471e+01,    1.011905e+02,   -5.000000e+00
    6320,    1.764706e+01,    8.333333e+01,   -5.000000e+00
    6321,    1.176471e+01,    8.928571e+01,   -5.000000e+00
    6322,    1.764706e+01,    7.142857e+01,   -5.000000e+00
    6323,    1.176471e+01,    7.738095e+01,   -5.000000e+00
    6324,    1.764706e+01,    5.952381e+01,   -5.000000e+00
    6325,    1.176471e+01,    6.547619e+01,   -5.000000e+00
    6326,    1.764706e+01,    4.761905e+01,   -5.000000e+00
    6327,    1.176471e+01,    5.357143e+01,   -5.000000e+00
    6328,    1.764706e+01,    3.571429e+01,   -5.000000e+00
    6329,    1.176471e+01,    4.166667e+01,   -5.000000e+00
    6330,    1.764706e+01,    2.380952e+01,   -5.000000e+00
    6331,    1.176471e+01,    2.976190e+01,   -5.000000e+00
    6332,    1.764706e+01,    1.190476e+01,   -5.000000e+00
    6333,    1.176471e+01,    1.785714e+01,   -5.000000e+00
    6334,    1.176471e+01,    5.952381e+00,   -5.000000e+00
    6335,    5.882353e+00,    2.380952e+02,   -5.000000e+00
    6336,    5.882353e+00,    2.261905e+02,   -5.000000e+00
    6337,    5.882353e+00,    2.142857e+02,   -5.000000e+00
    6338,    5.882353e+00,    2.023810e+02,   -5.000000e+00
    6339,    5.882353e+00,    1.904762e+02,   -5.000000e+00
    6340,    5.882353e+00,    1.785714e+02,   -5.000000e+00
    6341,    5.882353e+00,    1.666667e+02,   -5.000000e+00
    6342,    5.882353e+00,    1.547619e+02,   -5.000000e+00
    6343,    5.882353e+00,    1.428571e+02,   -5.000000e+00
    6344,    5.882353e+00,    1.309524e+02,   -5.000000e+00
    6345,    5.882353e+00,    1.190476e+02,   -5.000000e+00
    6346,    5.882353e+00,    1.071429e+02,   -5.000000e+00
    6347,    5.882353e+00,    9.523810e+01,   -5.000000e+00
    6348,    5.882353e+00,    8.333333e+01,   -5.000000e+00
    6349,    5.882353e+00,    7.142857e+01,   -5.000000e+00
    6350,    5.882353e+00,    5.952381e+01,   -5.000000e+00
    6351,    5.882353e+00,    4.761905e+01,   -5.000000e+00
    6352,    5.882353e+00,    3.571429e+01,   -5.000000e+00
    6353,    5.882353e+00,    2.380952e+01,   -5.000000e+00
    6354,    5.882353e+00,    1.190476e+01,   -5.000000e+00
    6355,    1.941176e+02,    0.000000e+00,    5.000000e+00
    6356,    1.823529e+02,    0.000000e+00,    5.000000e+00
    6357,    1.705882e+02,    0.000000e+00,    5.000000e+00
    6358,    1.588235e+02,    0.000000e+00,    5.000000e+00
    6359,    1.470588e+02,    0.000000e+00,    5.000000e+00
    6360,    1.352941e+02,    0.000000e+00,    5.000000e+00
    6361,    1.235294e+02,    0.000000e+00,    5.000000e+00
    6362,    1.117647e+02,    0.000000e+00,    5.000000e+00
    6363,    1.000000e+02,    0.000000e+00,    5.000000e+00
    6364,    8.823529e+01,    0.000000e+00,    5.000000e+00
    6365,    7.647059e+01,    0.000000e+00,    5.000000e+00
    6366,    6.470588e+01,    0.000000e+00,    5.000000e+00
    6367,    5.294118e+01,    0.000000e+00,    5.000000e+00
    6368,    4.117647e+01,    0.000000e+00,    5.000000e+00
    6369,    2.941176e+01,    0.000000e+00,    5.000000e+00
    6370,    1.764706e+01,    0.000000e+00,    5.000000e+00
    6371,    5.882353e+00,    0.000000e+00,    5.000000e+00
    6372,    1.882353e+02,    0.000000e+00,    0.000000e+00
    6373,    1.764706e+02,    0.000000e+00,    0.000000e+00
    6374,    1.647059e+02,    0.000000e+00,    0.000000e+00
    6375,    1.529412e+02,    0.000000e+00,    0.000000e+00
    6376,    1.411765e+02,    0.000000e+00,    0.000000e+00
    6377,    1.294118e+02,    0.000000e+00,    0.000000e+00
    6378,    1.176471e+02,    0.000000e+00,    0.000000e+00
    6379,    1.058824e+02,    0.000000e+00,    0.000000e+00
    6380,    9.411765e+01,    0.000000e+00,    0.000000e+00
    6381,    8.235294e+01,    0.000000e+00,    0.000000e+00
    6382,    7.058824e+01,    0.000000e+00,    0.000000e+00
    6383,    5.882353e+01,    0.000000e+00,    0.000000e+00
    6384,    4.705882e+01,    0.000000e+00,    0.000000e+00
    6385,    3.529412e+01,    0.000000e+00,    0.000000e+00
    6386,    2.352941e+01,    0.000000e+00,    0.000000e+00
    6387,    1.176471e+01,    0.000000e+00,    0.000000e+00
    6388,    1.941176e+02,    2.500000e+02,    5.000000e+00
    6389,    1.823529e+02,    2.500000e+02,    5.000000e+00
    6390,    1.705882e+02,    2.500000e+02,    5.000000e+00
    6391,    1.588235e+02,    2.500000e+02,    5.000000e+00
    6392,    1.470588e+02,    2.500000e+02,    5.000000e+00
    6393,    1.352941e+02,    2.500000e+02,    5.000000e+00
    6394,    1.235294e+02,    2.500000e+02,    5.000000e+00
    6395,    1.117647e+02,    2.500000e+02,    5.000000e+00
    6396,    1.000000e+02,    2.500000e+02,    5.000000e+00
    6397,    8.823529e+01,    2.500000e+02,    5.000000e+00
    6398,    7.647059e+01,    2.500000e+02,    5.000000e+00
    6399,    6.470588e+01,    2.500000e+02,    5.000000e+00
    6400,    5.294118e+01,    2.500000e+02,    5.000000e+00
    6401,    4.117647e+01,    2.500000e+02,    5.000000e+00
    6402,    2.941176e+01,    2.500000e+02,    5.000000e+00
    6403,    1.764706e+01,    2.500000e+02,    5.000000e+00
    6404,    5.882353e+00,    2.500000e+02,    5.000000e+00
    6405,    1.176471e+01,    5.952381e+00,    5.000000e+00
    6406,    5.882353e+00,    1.190476e+01,    5.000000e+00
    6407,    1.176471e+01,    1.785714e+01,    5.000000e+00
    6408,    5.882353e+00,    2.380952e+01,    5.000000e+00
    6409,    1.176471e+01,    2.976190e+01,    5.000000e+00
    6410,    5.882353e+00,    3.571429e+01,    5.000000e+00
    6411,    1.176471e+01,    4.166667e+01,    5.000000e+00
    6412,    5.882353e+00,    4.761905e+01,    5.000000e+00
    6413,    1.176471e+01,    5.357143e+01,    5.000000e+00
    6414,    5.882353e+00,    5.952381e+01,    5.000000e+00
    6415,    1.176471e+01,    6.547619e+01,    5.000000e+00
    6416,    5.882353e+00,    7.142857e+01,    5.000000e+00
    6417,    1.176471e+01,    7.738095e+01,    5.000000e+00
    6418,    5.882353e+00,    8.333333e+01,    5.000000e+00
    6419,    1.176471e+01,    8.928571e+01,    5.000000e+00
    6420,    5.882353e+00,    9.523810e+01,    5.000000e+00
    6421,    1.176471e+01,    1.011905e+02,    5.000000e+00
    6422,    5.882353e+00,    1.071429e+02,    5.000000e+00
    6423,    1.176471e+01,    1.130952e+02,    5.000000e+00
    6424,    5.882353e+00,    1.190476e+02,    5.000000e+00
    6425,    1.176471e+01,    1.250000e+02,    5.000000e+00
    6426,    5.882353e+00,    1.309524e+02,    5.000000e+00
    6427,    1.176471e+01,    1.369048e+02,    5.000000e+00
    6428,    5.882353e+00,    1.428571e+02,    5.000000e+00
    6429,    1.176471e+01,    1.488095e+02,    5.000000e+00
    6430,    5.882353e+00,    1.547619e+02,    5.000000e+00
    6431,    1.176471e+01,    1.607143e+02,    5.000000e+00
    6432,    5.882353e+00,    1.666667e+02,    5.000000e+00
    6433,    1.176471e+01,    1.726190e+02,    5.000000e+00
    6434,    5.882353e+00,    1.785714e+02,    5.000000e+00
    6435,    1.176471e+01,    1.845238e+02,    5.000000e+00
    6436,    5.882353e+00,    1.904762e+02,    5.000000e+00
    6437,    1.176471e+01,    1.964286e+02,    5.000000e+00
    6438,    5.882353e+00,    2.023810e+02,    5.000000e+00
    6439,    1.176471e+01,    2.083333e+02,    5.000000e+00
    6440,    5.882353e+00,    2.142857e+02,    5.000000e+00
    6441,    1.176471e+01,    2.202381e+02,    5.000000e+00
    6442,    5.882353e+00,    2.261905e+02,    5.000000e+00
    6443,    1.176471e+01,    2.321429e+02,    5.000000e+00
    6444,    5.882353e+00,    2.380952e+02,    5.000000e+00
    6445,    1.176471e+01,    2.440476e+02,    5.000000e+00
    6446,    2.352941e+01,    5.952381e+00,    5.000000e+00
    6447,    1.764706e+01,    1.190476e+01,    5.000000e+00
    6448,    2.352941e+01,    1.785714e+01,    5.000000e+00
    6449,    1.764706e+01,    2.380952e+01,    5.000000e+00
    6450,    2.352941e+01,    2.976190e+01,    5.000000e+00
    6451,    1.764706e+01,    3.571429e+01,    5.000000e+00
    6452,    2.352941e+01,    4.166667e+01,    5.000000e+00
    6453,    1.764706e+01,    4.761905e+01,    5.000000e+00
    6454,    2.352941e+01,    5.357143e+01,    5.000000e+00
    6455,    1.764706e+01,    5.952381e+01,    5.000000e+00
    6456,    2.352941e+01,    6.547619e+01,    5.000000e+00
    6457,    1.764706e+01,    7.142857e+01,    5.000000e+00
    6458,    2.352941e+01,    7.738095e+01,    5.000000e+00
    6459,    1.764706e+01,    8.333333e+01,    5.000000e+00
    6460,    2.352941e+01,    8.928571e+01,    5.000000e+00
    6461,    1.764706e+01,    9.523810e+01,    5.000000e+00
    6462,    2.352941e+01,    1.011905e+02,    5.000000e+00
    6463,    1.764706e+01,    1.071429e+02,    5.000000e+00
    6464,    2.352941e+01,    1.130952e+02,    5.000000e+00
    6465,    1.764706e+01,    1.190476e+02,    5.000000e+00
    6466,    2.352941e+01,    1.250000e+02,    5.000000e+00
    6467,    1.764706e+01,    1.309524e+02,    5.000000e+00
    6468,    2.352941e+01,    1.369048e+02,    5.000000e+00
    6469,    1.764706e+01,    1.428571e+02,    5.000000e+00
    6470,    2.352941e+01,    1.488095e+02,    5.000000e+00
    6471,    1.764706e+01,    1.547619e+02,    5.000000e+00
    6472,    2.352941e+01,    1.607143e+02,    5.000000e+00
    6473,    1.764706e+01,    1.666667e+02,    5.000000e+00
    6474,    2.352941e+01,    1.726190e+02,    5.000000e+00
    6475,    1.764706e+01,    1.785714e+02,    5.000000e+00
    6476,    2.352941e+01,    1.845238e+02,    5.000000e+00
    6477,    1.764706e+01,    1.904762e+02,    5.000000e+00
    6478,    2.352941e+01,    1.964286e+02,    5.000000e+00
    6479,    1.764706e+01,    2.023810e+02,    5.000000e+00
    6480,    2.352941e+01,    2.083333e+02,    5.000000e+00
    6481,    1.764706e+01,    2.142857e+02,    5.000000e+00
    6482,    2.352941e+01,    2.202381e+02,    5.000000e+00
    6483,    1.764706e+01,    2.261905e+02,    5.000000e+00
    6484,    2.352941e+01,    2.321429e+02,    5.000000e+00
    6485,    1.764706e+01,    2.380952e+02,    5.000000e+00
    6486,    2.352941e+01,    2.440476e+02,    5.000000e+00
    6487,    3.529412e+01,    5.952381e+00,    5.000000e+00
    6488,    2.941176e+01,    1.190476e+01,    5.000000e+00
    6489,    3.529412e+01,    1.785714e+01,    5.000000e+00
    6490,    2.941176e+01,    2.380952e+01,    5.000000e+00
    6491,    3.529412e+01,    2.976190e+01,    5.000000e+00
    6492,    2.941176e+01,    3.571429e+01,    5.000000e+00
    6493,    3.529412e+01,    4.166667e+01,    5.000000e+00
    6494,    2.941176e+01,    4.761905e+01,    5.000000e+00
    6495,    3.529412e+01,    5.357143e+01,    5.000000e+00
    6496,    2.941176e+01,    5.952381e+01,    5.000000e+00
    6497,    3.529412e+01,    6.547619e+01,    5.000000e+00
    6498,    2.941176e+01,    7.142857e+01,    5.000000e+00
    6499,    3.529412e+01,    7.738095e+01,    5.000000e+00
    6500,    2.941176e+01,    8.333333e+01,    5.000000e+00
    6501,    3.529412e+01,    8.928571e+01,    5.000000e+00
    6502,    2.941176e+01,    9.523810e+01,    5.000000e+00
    6503,    3.529412e+01,    1.011905e+02,    5.000000e+00
    6504,    2.941176e+01,    1.071429e+02,    5.000000e+00
    6505,    3.529412e+01,    1.130952e+02,    5.000000e+00
    6506,    2.941176e+01,    1.190476e+02,    5.000000e+00
    6507,    3.529412e+01,    1.250000e+02,    5.000000e+00
    6508,    2.941176e+01,    1.309524e+02,    5.000000e+00
    6509,    3.529412e+01,    1.369048e+02,    5.000000e+00
    6510,    2.941176e+01,    1.428571e+02,    5.000000e+00
    6511,    3.529412e+01,    1.488095e+02,    5.000000e+00
    6512,    2.941176e+01,    1.547619e+02,    5.000000e+00
    6513,    3.529412e+01,    1.607143e+02,    5.000000e+00
    6514,    2.941176e+01,    1.666667e+02,    5.000000e+00
    6515,    3.529412e+01,    1.726190e+02,    5.000000e+00
    6516,    2.941176e+01,    1.785714e+02,    5.000000e+00
    6517,    3.529412e+01,    1.845238e+02,    5.000000e+00
    6518,    2.941176e+01,    1.904762e+02,    5.000000e+00
    6519,    3.529412e+01,    1.964286e+02,    5.000000e+00
    6520,    2.941176e+01,    2.023810e+02,    5.000000e+00
    6521,    3.529412e+01,    2.083333e+02,    5.000000e+00
    6522,    2.941176e+01,    2.142857e+02,    5.000000e+00
    6523,    3.529412e+01,    2.202381e+02,    5.000000e+00
    6524,    2.941176e+01,    2.261905e+02,    5.000000e+00
    6525,    3.529412e+01,    2.321429e+02,    5.000000e+00
    6526,    2.941176e+01,    2.380952e+02,    5.000000e+00
    6527,    3.529412e+01,    2.440476e+02,    5.000000e+00
    6528,    4.705882e+01,    5.952381e+00,    5.000000e+00
    6529,    4.117647e+01,    1.190476e+01,    5.000000e+00
    6530,    4.705882e+01,    1.785714e+01,    5.000000e+00
    6531,    4.117647e+01,    2.380952e+01,    5.000000e+00
    6532,    4.705882e+01,    2.976190e+01,    5.000000e+00
    6533,    4.117647e+01,    3.571429e+01,    5.000000e+00
    6534,    4.705882e+01,    4.166667e+01,    5.000000e+00
    6535,    4.117647e+01,    4.761905e+01,    5.000000e+00
    6536,    4.705882e+01,    5.357143e+01,    5.000000e+00
    6537,    4.117647e+01,    5.952381e+01,    5.000000e+00
    6538,    4.705882e+01,    6.547619e+01,    5.000000e+00
    6539,    4.117647e+01,    7.142857e+01,    5.000000e+00
    6540,    4.705882e+01,    7.738095e+01,    5.000000e+00
    6541,    4.117647e+01,    8.333333e+01,    5.000000e+00
    6542,    4.705882e+01,    8.928571e+01,    5.000000e+00
    6543,    4.117647e+01,    9.523810e+01,    5.000000e+00
    6544,    4.705882e+01,    1.011905e+02,    5.000000e+00
    6545,    4.117647e+01,    1.071429e+02,    5.000000e+00
    6546,    4.705882e+01,    1.130952e+02,    5.000000e+00
    6547,    4.117647e+01,    1.190476e+02,    5.000000e+00
    6548,    4.705882e+01,    1.250000e+02,    5.000000e+00
    6549,    4.117647e+01,    1.309524e+02,    5.000000e+00
    6550,    4.705882e+01,    1.369048e+02,    5.000000e+00
    6551,    4.117647e+01,    1.428571e+02,    5.000000e+00
    6552,    4.705882e+01,    1.488095e+02,    5.000000e+00
    6553,    4.117647e+01,    1.547619e+02,    5.000000e+00
    6554,    4.705882e+01,    1.607143e+02,    5.000000e+00
    6555,    4.117647e+01,    1.666667e+02,    5.000000e+00
    6556,    4.705882e+01,    1.726190e+02,    5.000000e+00
    6557,    4.117647e+01,    1.785714e+02,    5.000000e+00
    6558,    4.705882e+01,    1.845238e+02,    5.000000e+00
    6559,    4.117647e+01,    1.904762e+02,    5.000000e+00
    6560,    4.705882e+01,    1.964286e+02,    5.000000e+00
    6561,    4.117647e+01,    2.023810e+02,    5.000000e+00
    6562,    4.705882e+01,    2.083333e+02,    5.000000e+00
    6563,    4.117647e+01,    2.142857e+02,    5.000000e+00
    6564,    4.705882e+01,    2.202381e+02,    5.000000e+00
    6565,    4.117647e+01,    2.261905e+02,    5.000000e+00
    6566,    4.705882e+01,    2.321429e+02,    5.000000e+00
    6567,    4.117647e+01,    2.380952e+02,    5.000000e+00
    6568,    4.705882e+01,    2.440476e+02,    5.000000e+00
    6569,    5.882353e+01,    5.952381e+00,    5.000000e+00
    6570,    5.294118e+01,    1.190476e+01,    5.000000e+00
    6571,    5.882353e+01,    1.785714e+01,    5.000000e+00
    6572,    5.294118e+01,    2.380952e+01,    5.000000e+00
    6573,    5.882353e+01,    2.976190e+01,    5.000000e+00
    6574,    5.294118e+01,    3.571429e+01,    5.000000e+00
    6575,    5.882353e+01,    4.166667e+01,    5.000000e+00
    6576,    5.294118e+01,    4.761905e+01,    5.000000e+00
    6577,    5.882353e+01,    5.357143e+01,    5.000000e+00
    6578,    5.294118e+01,    5.952381e+01,    5.000000e+00
    6579,    5.882353e+01,    6.547619e+01,    5.000000e+00
    6580,    5.294118e+01,    7.142857e+01,    5.000000e+00
    6581,    5.882353e+01,    7.738095e+01,    5.000000e+00
    6582,    5.294118e+01,    8.333333e+01,    5.000000e+00
    6583,    5.882353e+01,    8.928571e+01,    5.000000e+00
    6584,    5.294118e+01,    9.523810e+01,    5.000000e+00
    6585,    5.882353e+01,    1.011905e+02,    5.000000e+00
    6586,    5.294118e+01,    1.071429e+02,    5.000000e+00
    6587,    5.882353e+01,    1.130952e+02,    5.000000e+00
    6588,    5.294118e+01,    1.190476e+02,    5.000000e+00
    6589,    5.882353e+01,    1.250000e+02,    5.000000e+00
    6590,    5.294118e+01,    1.309524e+02,    5.000000e+00
    6591,    5.882353e+01,    1.369048e+02,    5.000000e+00
    6592,    5.294118e+01,    1.428571e+02,    5.000000e+00
    6593,    5.882353e+01,    1.488095e+02,    5.000000e+00
    6594,    5.294118e+01,    1.547619e+02,    5.000000e+00
    6595,    5.882353e+01,    1.607143e+02,    5.000000e+00
    6596,    5.294118e+01,    1.666667e+02,    5.000000e+00
    6597,    5.882353e+01,    1.726190e+02,    5.000000e+00
    6598,    5.294118e+01,    1.785714e+02,    5.000000e+00
    6599,    5.882353e+01,    1.845238e+02,    5.000000e+00
    6600,    5.294118e+01,    1.904762e+02,    5.000000e+00
    6601,    5.882353e+01,    1.964286e+02,    5.000000e+00
    6602,    5.294118e+01,    2.023810e+02,    5.000000e+00
    6603,    5.882353e+01,    2.083333e+02,    5.000000e+00
    6604,    5.294118e+01,    2.142857e+02,    5.000000e+00
    6605,    5.882353e+01,    2.202381e+02,    5.000000e+00
    6606,    5.294118e+01,    2.261905e+02,    5.000000e+00
    6607,    5.882353e+01,    2.321429e+02,    5.000000e+00
    6608,    5.294118e+01,    2.380952e+02,    5.000000e+00
    6609,    5.882353e+01,    2.440476e+02,    5.000000e+00
    6610,    7.058824e+01,    5.952381e+00,    5.000000e+00
    6611,    6.470588e+01,    1.190476e+01,    5.000000e+00
    6612,    7.058824e+01,    1.785714e+01,    5.000000e+00
    6613,    6.470588e+01,    2.380952e+01,    5.000000e+00
    6614,    7.058824e+01,    2.976190e+01,    5.000000e+00
    6615,    6.470588e+01,    3.571429e+01,    5.000000e+00
    6616,    7.058824e+01,    4.166667e+01,    5.000000e+00
    6617,    6.470588e+01,    4.761905e+01,    5.000000e+00
    6618,    7.058824e+01,    5.357143e+01,    5.000000e+00
    6619,    6.470588e+01,    5.952381e+01,    5.000000e+00
    6620,    7.058824e+01,    6.547619e+01,    5.000000e+00
    6621,    6.470588e+01,    7.142857e+01,    5.000000e+00
    6622,    7.058824e+01,    7.738095e+01,    5.000000e+00
    6623,    6.470588e+01,    8.333333e+01,    5.000000e+00
    6624,    7.058824e+01,    8.928571e+01,    5.000000e+00
    6625,    6.470588e+01,    9.523810e+01,    5.000000e+00
    6626,    7.058824e+01,    1.011905e+02,    5.000000e+00
    6627,    6.470588e+01,    1.071429e+02,    5.000000e+00
    6628,    7.058824e+01,    1.130952e+02,    5.000000e+00
    6629,    6.470588e+01,    1.190476e+02,    5.000000e+00
    6630,    7.058824e+01,    1.250000e+02,    5.000000e+00
    6631,    6.470588e+01,    1.309524e+02,    5.000000e+00
    6632,    7.058824e+01,    1.369048e+02,    5.000000e+00
    6633,    6.470588e+01,    1.428571e+02,    5.000000e+00
    6634,    7.058824e+01,    1.488095e+02,    5.000000e+00
    6635,    6.470588e+01,    1.547619e+02,    5.000000e+00
    6636,    7.058824e+01,    1.607143e+02,    5.000000e+00
    6637,    6.470588e+01,    1.666667e+02,    5.000000e+00
    6638,    7.058824e+01,    1.726190e+02,    5.000000e+00
    6639,    6.470588e+01,    1.785714e+02,    5.000000e+00
    6640,    7.058824e+01,    1.845238e+02,    5.000000e+00
    6641,    6.470588e+01,    1.904762e+02,    5.000000e+00
    6642,    7.058824e+01,    1.964286e+02,    5.000000e+00
    6643,    6.470588e+01,    2.023810e+02,    5.000000e+00
    6644,    7.058824e+01,    2.083333e+02,    5.000000e+00
    6645,    6.470588e+01,    2.142857e+02,    5.000000e+00
    6646,    7.058824e+01,    2.202381e+02,    5.000000e+00
    6647,    6.470588e+01,    2.261905e+02,    5.000000e+00
    6648,    7.058824e+01,    2.321429e+02,    5.000000e+00
    6649,    6.470588e+01,    2.380952e+02,    5.000000e+00
    6650,    7.058824e+01,    2.440476e+02,    5.000000e+00
    6651,    8.235294e+01,    5.952381e+00,    5.000000e+00
    6652,    7.647059e+01,    1.190476e+01,    5.000000e+00
    6653,    8.235294e+01,    1.785714e+01,    5.000000e+00
    6654,    7.647059e+01,    2.380952e+01,    5.000000e+00
    6655,    8.235294e+01,    2.976190e+01,    5.000000e+00
    6656,    7.647059e+01,    3.571429e+01,    5.000000e+00
    6657,    8.235294e+01,    4.166667e+01,    5.000000e+00
    6658,    7.647059e+01,    4.761905e+01,    5.000000e+00
    6659,    8.235294e+01,    5.357143e+01,    5.000000e+00
    6660,    7.647059e+01,    5.952381e+01,    5.000000e+00
    6661,    8.235294e+01,    6.547619e+01,    5.000000e+00
    6662,    7.647059e+01,    7.142857e+01,    5.000000e+00
    6663,    8.235294e+01,    7.738095e+01,    5.000000e+00
    6664,    7.647059e+01,    8.333333e+01,    5.000000e+00
    6665,    8.235294e+01,    8.928571e+01,    5.000000e+00
    6666,    7.647059e+01,    9.523810e+01,    5.000000e+00
    6667,    8.235294e+01,    1.011905e+02,    5.000000e+00
    6668,    7.647059e+01,    1.071429e+02,    5.000000e+00
    6669,    8.235294e+01,    1.130952e+02,    5.000000e+00
    6670,    7.647059e+01,    1.190476e+02,    5.000000e+00
    6671,    8.235294e+01,    1.250000e+02,    5.000000e+00
    6672,    7.647059e+01,    1.309524e+02,    5.000000e+00
    6673,    8.235294e+01,    1.369048e+02,    5.000000e+00
    6674,    7.647059e+01,    1.428571e+02,    5.000000e+00
    6675,    8.235294e+01,    1.488095e+02,    5.000000e+00
    6676,    7.647059e+01,    1.547619e+02,    5.000000e+00
    6677,    8.235294e+01,    1.607143e+02,    5.000000e+00
    6678,    7.647059e+01,    1.666667e+02,    5.000000e+00
    6679,    8.235294e+01,    1.726190e+02,    5.000000e+00
    6680,    7.647059e+01,    1.785714e+02,    5.000000e+00
    6681,    8.235294e+01,    1.845238e+02,    5.000000e+00
    6682,    7.647059e+01,    1.904762e+02,    5.000000e+00
    6683,    8.235294e+01,    1.964286e+02,    5.000000e+00
    6684,    7.647059e+01,    2.023810e+02,    5.000000e+00
    6685,    8.235294e+01,    2.083333e+02,    5.000000e+00
    6686,    7.647059e+01,    2.142857e+02,    5.000000e+00
    6687,    8.235294e+01,    2.202381e+02,    5.000000e+00
    6688,    7.647059e+01,    2.261905e+02,    5.000000e+00
    6689,    8.235294e+01,    2.321429e+02,    5.000000e+00
    6690,    7.647059e+01,    2.380952e+02,    5.000000e+00
    6691,    8.235294e+01,    2.440476e+02,    5.000000e+00
    6692,    9.411765e+01,    5.952381e+00,    5.000000e+00
    6693,    8.823529e+01,    1.190476e+01,    5.000000e+00
    6694,    9.411765e+01,    1.785714e+01,    5.000000e+00
    6695,    8.823529e+01,    2.380952e+01,    5.000000e+00
    6696,    9.411765e+01,    2.976190e+01,    5.000000e+00
    6697,    8.823529e+01,    3.571429e+01,    5.000000e+00
    6698,    9.411765e+01,    4.166667e+01,    5.000000e+00
    6699,    8.823529e+01,    4.761905e+01,    5.000000e+00
    6700,    9.411765e+01,    5.357143e+01,    5.000000e+00
    6701,    8.823529e+01,    5.952381e+01,    5.000000e+00
    6702,    9.411765e+01,    6.547619e+01,    5.000000e+00
    6703,    8.823529e+01,    7.142857e+01,    5.000000e+00
    6704,    9.411765e+01,    7.738095e+01,    5.000000e+00
    6705,    8.823529e+01,    8.333333e+01,    5.000000e+00
    6706,    9.411765e+01,    8.928571e+01,    5.000000e+00
    6707,    8.823529e+01,    9.523810e+01,    5.000000e+00
    6708,    9.411765e+01,    1.011905e+02,    5.000000e+00
    6709,    8.823529e+01,    1.071429e+02,    5.000000e+00
    6710,    9.411765e+01,    1.130952e+02,    5.000000e+00
    6711,    8.823529e+01,    1.190476e+02,    5.000000e+00
    6712,    9.411765e+01,    1.250000e+02,    5.000000e+00
    6713,    8.823529e+01,    1.309524e+02,    5.000000e+00
    6714,    9.411765e+01,    1.369048e+02,    5.000000e+00
    6715,    8.823529e+01,    1.428571e+02,    5.000000e+00
    6716,    9.411765e+01,    1.488095e+02,    5.000000e+00
    6717,    8.823529e+01,    1.547619e+02,    5.000000e+00
    6718,    9.411765e+01,    1.607143e+02,    5.000000e+00
    6719,    8.823529e+01,    1.666667e+02,    5.000000e+00
    6720,    9.411765e+01,    1.726190e+02,    5.000000e+00
    6721,    8.823529e+01,    1.785714e+02,    5.000000e+00
    6722,    9.411765e+01,    1.845238e+02,    5.000000e+00
    6723,    8.823529e+01,    1.904762e+02,    5.000000e+00
    6724,    9.411765e+01,    1.964286e+02,    5.000000e+00
    6725,    8.823529e+01,    2.023810e+02,    5.000000e+00
    6726,    9.411765e+01,    2.083333e+02,    5.000000e+00
    6727,    8.823529e+01,    2.142857e+02,    5.000000e+00
    6728,    9.411765e+01,    2.202381e+02,    5.000000e+00
    6729,    8.823529e+01,    2.261905e+02,    5.000000e+00
    6730,    9.411765e+01,    2.321429e+02,    5.000000e+00
    6731,    8.823529e+01,    2.380952e+02,    5.000000e+00
    6732,    9.411765e+01,    2.440476e+02,    5.000000e+00
    6733,    1.058824e+02,    5.952381e+00,    5.000000e+00
    6734,    1.000000e+02,    1.190476e+01,    5.000000e+00
    6735,    1.058824e+02,    1.785714e+01,    5.000000e+00
    6736,    1.000000e+02,    2.380952e+01,    5.000000e+00
    6737,    1.058824e+02,    2.976190e+01,    5.000000e+00
    6738,    1.000000e+02,    3.571429e+01,    5.000000e+00
    6739,    1.058824e+02,    4.166667e+01,    5.000000e+00
    6740,    1.000000e+02,    4.761905e+01,    5.000000e+00
    6741,    1.058824e+02,    5.357143e+01,    5.000000e+00
    6742,    1.000000e+02,    5.952381e+01,    5.000000e+00
    6743,    1.058824e+02,    6.547619e+01,    5.000000e+00
    6744,    1.000000e+02,    7.142857e+01,    5.000000e+00
    6745,    1.058824e+02,    7.738095e+01,    5.000000e+00
    6746,    1.000000e+02,    8.333333e+01,    5.000000e+00
    6747,    1.058824e+02,    8.928571e+01,    5.000000e+00
    6748,    1.000000e+02,    9.523810e+01,    5.000000e+00
    6749,    1.058824e+02,    1.011905e+02,    5.000000e+00
    6750,    1.000000e+02,    1.071429e+02,    5.000000e+00
    6751,    1.058824e+02,    1.130952e+02,    5.000000e+00
    6752,    1.000000e+02,    1.190476e+02,    5.000000e+00
    6753,    1.058824e+02,    1.250000e+02,    5.000000e+00
    6754,    1.000000e+02,    1.309524e+02,    5.000000e+00
    6755,    1.058824e+02,    1.369048e+02,    5.000000e+00
    6756,    1.000000e+02,    1.428571e+02,    5.000000e+00
    6757,    1.058824e+02,    1.488095e+02,    5.000000e+00
    6758,    1.000000e+02,    1.547619e+02,    5.000000e+00
    6759,    1.058824e+02,    1.607143e+02,    5.000000e+00
    6760,    1.000000e+02,    1.666667e+02,    5.000000e+00
    6761,    1.058824e+02,    1.726190e+02,    5.000000e+00
    6762,    1.000000e+02,    1.785714e+02,    5.000000e+00
    6763,    1.058824e+02,    1.845238e+02,    5.000000e+00
    6764,    1.000000e+02,    1.904762e+02,    5.000000e+00
    6765,    1.058824e+02,    1.964286e+02,    5.000000e+00
    6766,    1.000000e+02,    2.023810e+02,    5.000000e+00
    6767,    1.058824e+02,    2.083333e+02,    5.000000e+00
    6768,    1.000000e+02,    2.142857e+02,    5.000000e+00
    6769,    1.058824e+02,    2.202381e+02,    5.000000e+00
    6770,    1.000000e+02,    2.261905e+02,    5.000000e+00
    6771,    1.058824e+02,    2.321429e+02,    5.000000e+00
    6772,    1.000000e+02,    2.380952e+02,    5.000000e+00
    6773,    1.058824e+02,    2.440476e+02,    5.000000e+00
    6774,    1.176471e+02,    5.952381e+00,    5.000000e+00
    6775,    1.117647e+02,    1.190476e+01,    5.000000e+00
    6776,    1.176471e+02,    1.785714e+01,    5.000000e+00
    6777,    1.117647e+02,    2.380952e+01,    5.000000e+00
    6778,    1.176471e+02,    2.976190e+01,    5.000000e+00
    6779,    1.117647e+02,    3.571429e+01,    5.000000e+00
    6780,    1.176471e+02,    4.166667e+01,    5.000000e+00
    6781,    1.117647e+02,    4.761905e+01,    5.000000e+00
    6782,    1.176471e+02,    5.357143e+01,    5.000000e+00
    6783,    1.117647e+02,    5.952381e+01,    5.000000e+00
    6784,    1.176471e+02,    6.547619e+01,    5.000000e+00
    6785,    1.117647e+02,    7.142857e+01,    5.000000e+00
    6786,    1.176471e+02,    7.738095e+01,    5.000000e+00
    6787,    1.117647e+02,    8.333333e+01,    5.000000e+00
    6788,    1.176471e+02,    8.928571e+01,    5.000000e+00
    6789,    1.117647e+02,    9.523810e+01,    5.000000e+00
    6790,    1.176471e+02,    1.011905e+02,    5.000000e+00
    6791,    1.117647e+02,    1.071429e+02,    5.000000e+00
    6792,    1.176471e+02,    1.130952e+02,    5.000000e+00
    6793,    1.117647e+02,    1.190476e+02,    5.000000e+00
    6794,    1.176471e+02,    1.250000e+02,    5.000000e+00
    6795,    1.117647e+02,    1.309524e+02,    5.000000e+00
    6796,    1.176471e+02,    1.369048e+02,    5.000000e+00
    6797,    1.117647e+02,    1.428571e+02,    5.000000e+00
    6798,    1.176471e+02,    1.488095e+02,    5.000000e+00
    6799,    1.117647e+02,    1.547619e+02,    5.000000e+00
    6800,    1.176471e+02,    1.607143e+02,    5.000000e+00
    6801,    1.117647e+02,    1.666667e+02,    5.000000e+00
    6802,    1.176471e+02,    1.726190e+02,    5.000000e+00
    6803,    1.117647e+02,    1.785714e+02,    5.000000e+00
    6804,    1.176471e+02,    1.845238e+02,    5.000000e+00
    6805,    1.117647e+02,    1.904762e+02,    5.000000e+00
    6806,    1.176471e+02,    1.964286e+02,    5.000000e+00
    6807,    1.117647e+02,    2.023810e+02,    5.000000e+00
    6808,    1.176471e+02,    2.083333e+02,    5.000000e+00
    6809,    1.117647e+02,    2.142857e+02,    5.000000e+00
    6810,    1.176471e+02,    2.202381e+02,    5.000000e+00
    6811,    1.117647e+02,    2.261905e+02,    5.000000e+00
    6812,    1.176471e+02,    2.321429e+02,    5.000000e+00
    6813,    1.117647e+02,    2.380952e+02,    5.000000e+00
    6814,    1.176471e+02,    2.440476e+02,    5.000000e+00
    6815,    1.294118e+02,    5.952381e+00,    5.000000e+00
    6816,    1.235294e+02,    1.190476e+01,    5.000000e+00
    6817,    1.294118e+02,    1.785714e+01,    5.000000e+00
    6818,    1.235294e+02,    2.380952e+01,    5.000000e+00
    6819,    1.294118e+02,    2.976190e+01,    5.000000e+00
    6820,    1.235294e+02,    3.571429e+01,    5.000000e+00
    6821,    1.294118e+02,    4.166667e+01,    5.000000e+00
    6822,    1.235294e+02,    4.761905e+01,    5.000000e+00
    6823,    1.294118e+02,    5.357143e+01,    5.000000e+00
    6824,    1.235294e+02,    5.952381e+01,    5.000000e+00
    6825,    1.294118e+02,    6.547619e+01,    5.000000e+00
    6826,    1.235294e+02,    7.142857e+01,    5.000000e+00
    6827,    1.294118e+02,    7.738095e+01,    5.000000e+00
    6828,    1.235294e+02,    8.333333e+01,    5.000000e+00
    6829,    1.294118e+02,    8.928571e+01,    5.000000e+00
    6830,    1.235294e+02,    9.523810e+01,    5.000000e+00
    6831,    1.294118e+02,    1.011905e+02,    5.000000e+00
    6832,    1.235294e+02,    1.071429e+02,    5.000000e+00
    6833,    1.294118e+02,    1.130952e+02,    5.000000e+00
    6834,    1.235294e+02,    1.190476e+02,    5.000000e+00
    6835,    1.294118e+02,    1.250000e+02,    5.000000e+00
    6836,    1.235294e+02,    1.309524e+02,    5.000000e+00
    6837,    1.294118e+02,    1.369048e+02,    5.000000e+00
    6838,    1.235294e+02,    1.428571e+02,    5.000000e+00
    6839,    1.294118e+02,    1.488095e+02,    5.000000e+00
    6840,    1.235294e+02,    1.547619e+02,    5.000000e+00
    6841,    1.294118e+02,    1.607143e+02,    5.000000e+00
    6842,    1.235294e+02,    1.666667e+02,    5.000000e+00
    6843,    1.294118e+02,    1.726190e+02,    5.000000e+00
    6844,    1.235294e+02,    1.785714e+02,    5.000000e+00
    6845,    1.294118e+02,    1.845238e+02,    5.000000e+00
    6846,    1.235294e+02,    1.904762e+02,    5.000000e+00
    6847,    1.294118e+02,    1.964286e+02,    5.000000e+00
    6848,    1.235294e+02,    2.023810e+02,    5.000000e+00
    6849,    1.294118e+02,    2.083333e+02,    5.000000e+00
    6850,    1.235294e+02,    2.142857e+02,    5.000000e+00
    6851,    1.294118e+02,    2.202381e+02,    5.000000e+00
    6852,    1.235294e+02,    2.261905e+02,    5.000000e+00
    6853,    1.294118e+02,    2.321429e+02,    5.000000e+00
    6854,    1.235294e+02,    2.380952e+02,    5.000000e+00
    6855,    1.294118e+02,    2.440476e+02,    5.000000e+00
    6856,    1.411765e+02,    5.952381e+00,    5.000000e+00
    6857,    1.352941e+02,    1.190476e+01,    5.000000e+00
    6858,    1.411765e+02,    1.785714e+01,    5.000000e+00
    6859,    1.352941e+02,    2.380952e+01,    5.000000e+00
    6860,    1.411765e+02,    2.976190e+01,    5.000000e+00
    6861,    1.352941e+02,    3.571429e+01,    5.000000e+00
    6862,    1.411765e+02,    4.166667e+01,    5.000000e+00
    6863,    1.352941e+02,    4.761905e+01,    5.000000e+00
    6864,    1.411765e+02,    5.357143e+01,    5.000000e+00
    6865,    1.352941e+02,    5.952381e+01,    5.000000e+00
    6866,    1.411765e+02,    6.547619e+01,    5.000000e+00
    6867,    1.352941e+02,    7.142857e+01,    5.000000e+00
    6868,    1.411765e+02,    7.738095e+01,    5.000000e+00
    6869,    1.352941e+02,    8.333333e+01,    5.000000e+00
    6870,    1.411765e+02,    8.928571e+01,    5.000000e+00
    6871,    1.352941e+02,    9.523810e+01,    5.000000e+00
    6872,    1.411765e+02,    1.011905e+02,    5.000000e+00
    6873,    1.352941e+02,    1.071429e+02,    5.000000e+00
    6874,    1.411765e+02,    1.130952e+02,    5.000000e+00
    6875,    1.352941e+02,    1.190476e+02,    5.000000e+00
    6876,    1.411765e+02,    1.250000e+02,    5.000000e+00
    6877,    1.352941e+02,    1.309524e+02,    5.000000e+00
    6878,    1.411765e+02,    1.369048e+02,    5.000000e+00
    6879,    1.352941e+02,    1.428571e+02,    5.000000e+00
    6880,    1.411765e+02,    1.488095e+02,    5.000000e+00
    6881,    1.352941e+02,    1.547619e+02,    5.000000e+00
    6882,    1.411765e+02,    1.607143e+02,    5.000000e+00
    6883,    1.352941e+02,    1.666667e+02,    5.000000e+00
    6884,    1.411765e+02,    1.726190e+02,    5.000000e+00
    6885,    1.352941e+02,    1.785714e+02,    5.000000e+00
    6886,    1.411765e+02,    1.845238e+02,    5.000000e+00
    6887,    1.352941e+02,    1.904762e+02,    5.000000e+00
    6888,    1.411765e+02,    1.964286e+02,    5.000000e+00
    6889,    1.352941e+02,    2.023810e+02,    5.000000e+00
    6890,    1.411765e+02,    2.083333e+02,    5.000000e+00
    6891,    1.352941e+02,    2.142857e+02,    5.000000e+00
    6892,    1.411765e+02,    2.202381e+02,    5.000000e+00
    6893,    1.352941e+02,    2.261905e+02,    5.000000e+00
    6894,    1.411765e+02,    2.321429e+02,    5.000000e+00
    6895,    1.352941e+02,    2.380952e+02,    5.000000e+00
    6896,    1.411765e+02,    2.440476e+02,    5.000000e+00
    6897,    1.529412e+02,    5.952381e+00,    5.000000e+00
    6898,    1.470588e+02,    1.190476e+01,    5.000000e+00
    6899,    1.529412e+02,    1.785714e+01,    5.000000e+00
    6900,    1.470588e+02,    2.380952e+01,    5.000000e+00
    6901,    1.529412e+02,    2.976190e+01,    5.000000e+00
    6902,    1.470588e+02,    3.571429e+01,    5.000000e+00
    6903,    1.529412e+02,    4.166667e+01,    5.000000e+00
    6904,    1.470588e+02,    4.761905e+01,    5.000000e+00
    6905,    1.529412e+02,    5.357143e+01,    5.000000e+00
    6906,    1.470588e+02,    5.952381e+01,    5.000000e+00
    6907,    1.529412e+02,    6.547619e+01,    5.000000e+00
    6908,    1.470588e+02,    7.142857e+01,    5.000000e+00
    6909,    1.529412e+02,    7.738095e+01,    5.000000e+00
    6910,    1.470588e+02,    8.333333e+01,    5.000000e+00
    6911,    1.529412e+02,    8.928571e+01,    5.000000e+00
    6912,    1.470588e+02,    9.523810e+01,    5.000000e+00
    6913,    1.529412e+02,    1.011905e+02,    5.000000e+00
    6914,    1.470588e+02,    1.071429e+02,    5.000000e+00
    6915,    1.529412e+02,    1.130952e+02,    5.000000e+00
    6916,    1.470588e+02,    1.190476e+02,    5.000000e+00
    6917,    1.529412e+02,    1.250000e+02,    5.000000e+00
    6918,    1.470588e+02,    1.309524e+02,    5.000000e+00
    6919,    1.529412e+02,    1.369048e+02,    5.000000e+00
    6920,    1.470588e+02,    1.428571e+02,    5.000000e+00
    6921,    1.529412e+02,    1.488095e+02,    5.000000e+00
    6922,    1.470588e+02,    1.547619e+02,    5.000000e+00
    6923,    1.529412e+02,    1.607143e+02,    5.000000e+00
    6924,    1.470588e+02,    1.666667e+02,    5.000000e+00
    6925,    1.529412e+02,    1.726190e+02,    5.000000e+00
    6926,    1.470588e+02,    1.785714e+02,    5.000000e+00
    6927,    1.529412e+02,    1.845238e+02,    5.000000e+00
    6928,    1.470588e+02,    1.904762e+02,    5.000000e+00
    6929,    1.529412e+02,    1.964286e+02,    5.000000e+00
    6930,    1.470588e+02,    2.023810e+02,    5.000000e+00
    6931,    1.529412e+02,    2.083333e+02,    5.000000e+00
    6932,    1.470588e+02,    2.142857e+02,    5.000000e+00
    6933,    1.529412e+02,    2.202381e+02,    5.000000e+00
    6934,    1.470588e+02,    2.261905e+02,    5.000000e+00
    6935,    1.529412e+02,    2.321429e+02,    5.000000e+00
    6936,    1.470588e+02,    2.380952e+02,    5.000000e+00
    6937,    1.529412e+02,    2.440476e+02,    5.000000e+00
    6938,    1.647059e+02,    5.952381e+00,    5.000000e+00
    6939,    1.588235e+02,    1.190476e+01,    5.000000e+00
    6940,    1.647059e+02,    1.785714e+01,    5.000000e+00
    6941,    1.588235e+02,    2.380952e+01,    5.000000e+00
    6942,    1.647059e+02,    2.976190e+01,    5.000000e+00
    6943,    1.588235e+02,    3.571429e+01,    5.000000e+00
    6944,    1.647059e+02,    4.166667e+01,    5.000000e+00
    6945,    1.588235e+02,    4.761905e+01,    5.000000e+00
    6946,    1.647059e+02,    5.357143e+01,    5.000000e+00
    6947,    1.588235e+02,    5.952381e+01,    5.000000e+00
    6948,    1.647059e+02,    6.547619e+01,    5.000000e+00
    6949,    1.588235e+02,    7.142857e+01,    5.000000e+00
    6950,    1.647059e+02,    7.738095e+01,    5.000000e+00
    6951,    1.588235e+02,    8.333333e+01,    5.000000e+00
    6952,    1.647059e+02,    8.928571e+01,    5.000000e+00
    6953,    1.588235e+02,    9.523810e+01,    5.000000e+00
    6954,    1.647059e+02,    1.011905e+02,    5.000000e+00
    6955,    1.588235e+02,    1.071429e+02,    5.000000e+00
    6956,    1.647059e+02,    1.130952e+02,    5.000000e+00
    6957,    1.588235e+02,    1.190476e+02,    5.000000e+00
    6958,    1.647059e+02,    1.250000e+02,    5.000000e+00
    6959,    1.588235e+02,    1.309524e+02,    5.000000e+00
    6960,    1.647059e+02,    1.369048e+02,    5.000000e+00
    6961,    1.588235e+02,    1.428571e+02,    5.000000e+00
    6962,    1.647059e+02,    1.488095e+02,    5.000000e+00
    6963,    1.588235e+02,    1.547619e+02,    5.000000e+00
    6964,    1.647059e+02,    1.607143e+02,    5.000000e+00
    6965,    1.588235e+02,    1.666667e+02,    5.000000e+00
    6966,    1.647059e+02,    1.726190e+02,    5.000000e+00
    6967,    1.588235e+02,    1.785714e+02,    5.000000e+00
    6968,    1.647059e+02,    1.845238e+02,    5.000000e+00
    6969,    1.588235e+02,    1.904762e+02,    5.000000e+00
    6970,    1.647059e+02,    1.964286e+02,    5.000000e+00
    6971,    1.588235e+02,    2.023810e+02,    5.000000e+00
    6972,    1.647059e+02,    2.083333e+02,    5.000000e+00
    6973,    1.588235e+02,    2.142857e+02,    5.000000e+00
    6974,    1.647059e+02,    2.202381e+02,    5.000000e+00
    6975,    1.588235e+02,    2.261905e+02,    5.000000e+00
    6976,    1.647059e+02,    2.321429e+02,    5.000000e+00
    6977,    1.588235e+02,    2.380952e+02,    5.000000e+00
    6978,    1.647059e+02,    2.440476e+02,    5.000000e+00
    6979,    1.764706e+02,    5.952381e+00,    5.000000e+00
    6980,    1.705882e+02,    1.190476e+01,    5.000000e+00
    6981,    1.764706e+02,    1.785714e+01,    5.000000e+00
    6982,    1.705882e+02,    2.380952e+01,    5.000000e+00
    6983,    1.764706e+02,    2.976190e+01,    5.000000e+00
    6984,    1.705882e+02,    3.571429e+01,    5.000000e+00
    6985,    1.764706e+02,    4.166667e+01,    5.000000e+00
    6986,    1.705882e+02,    4.761905e+01,    5.000000e+00
    6987,    1.764706e+02,    5.357143e+01,    5.000000e+00
    6988,    1.705882e+02,    5.952381e+01,    5.000000e+00
    6989,    1.764706e+02,    6.547619e+01,    5.000000e+00
    6990,    1.705882e+02,    7.142857e+01,    5.000000e+00
    6991,    1.764706e+02,    7.738095e+01,    5.000000e+00
    6992,    1.705882e+02,    8.333333e+01,    5.000000e+00
    6993,    1.764706e+02,    8.928571e+01,    5.000000e+00
    6994,    1.705882e+02,    9.523810e+01,    5.000000e+00
    6995,    1.764706e+02,    1.011905e+02,    5.000000e+00
    6996,    1.705882e+02,    1.071429e+02,    5.000000e+00
    6997,    1.764706e+02,    1.130952e+02,    5.000000e+00
    6998,    1.705882e+02,    1.190476e+02,    5.000000e+00
    6999,    1.764706e+02,    1.250000e+02,    5.000000e+00
    7000,    1.705882e+02,    1.309524e+02,    5.000000e+00
    7001,    1.764706e+02,    1.369048e+02,    5.000000e+00
    7002,    1.705882e+02,    1.428571e+02,    5.000000e+00
    7003,    1.764706e+02,    1.488095e+02,    5.000000e+00
    7004,    1.705882e+02,    1.547619e+02,    5.000000e+00
    7005,    1.764706e+02,    1.607143e+02,    5.000000e+00
    7006,    1.705882e+02,    1.666667e+02,    5.000000e+00
    7007,    1.764706e+02,    1.726190e+02,    5.000000e+00
    7008,    1.705882e+02,    1.785714e+02,    5.000000e+00
    7009,    1.764706e+02,    1.845238e+02,    5.000000e+00
    7010,    1.705882e+02,    1.904762e+02,    5.000000e+00
    7011,    1.764706e+02,    1.964286e+02,    5.000000e+00
    7012,    1.705882e+02,    2.023810e+02,    5.000000e+00
    7013,    1.764706e+02,    2.083333e+02,    5.000000e+00
    7014,    1.705882e+02,    2.142857e+02,    5.000000e+00
    7015,    1.764706e+02,    2.202381e+02,    5.000000e+00
    7016,    1.705882e+02,    2.261905e+02,    5.000000e+00
    7017,    1.764706e+02,    2.321429e+02,    5.000000e+00
    7018,    1.705882e+02,    2.380952e+02,    5.000000e+00
    7019,    1.764706e+02,    2.440476e+02,    5.000000e+00
    7020,    1.882353e+02,    5.952381e+00,    5.000000e+00
    7021,    1.823529e+02,    1.190476e+01,    5.000000e+00
    7022,    1.882353e+02,    1.785714e+01,    5.000000e+00
    7023,    1.823529e+02,    2.380952e+01,    5.000000e+00
    7024,    1.882353e+02,    2.976190e+01,    5.000000e+00
    7025,    1.823529e+02,    3.571429e+01,    5.000000e+00
    7026,    1.882353e+02,    4.166667e+01,    5.000000e+00
    7027,    1.823529e+02,    4.761905e+01,    5.000000e+00
    7028,    1.882353e+02,    5.357143e+01,    5.000000e+00
    7029,    1.823529e+02,    5.952381e+01,    5.000000e+00
    7030,    1.882353e+02,    6.547619e+01,    5.000000e+00
    7031,    1.823529e+02,    7.142857e+01,    5.000000e+00
    7032,    1.882353e+02,    7.738095e+01,    5.000000e+00
    7033,    1.823529e+02,    8.333333e+01,    5.000000e+00
    7034,    1.882353e+02,    8.928571e+01,    5.000000e+00
    7035,    1.823529e+02,    9.523810e+01,    5.000000e+00
    7036,    1.882353e+02,    1.011905e+02,    5.000000e+00
    7037,    1.823529e+02,    1.071429e+02,    5.000000e+00
    7038,    1.882353e+02,    1.130952e+02,    5.000000e+00
    7039,    1.823529e+02,    1.190476e+02,    5.000000e+00
    7040,    1.882353e+02,    1.250000e+02,    5.000000e+00
    7041,    1.823529e+02,    1.309524e+02,    5.000000e+00
    7042,    1.882353e+02,    1.369048e+02,    5.000000e+00
    7043,    1.823529e+02,    1.428571e+02,    5.000000e+00
    7044,    1.882353e+02,    1.488095e+02,    5.000000e+00
    7045,    1.823529e+02,    1.547619e+02,    5.000000e+00
    7046,    1.882353e+02,    1.607143e+02,    5.000000e+00
    7047,    1.823529e+02,    1.666667e+02,    5.000000e+00
    7048,    1.882353e+02,    1.726190e+02,    5.000000e+00
    7049,    1.823529e+02,    1.785714e+02,    5.000000e+00
    7050,    1.882353e+02,    1.845238e+02,    5.000000e+00
    7051,    1.823529e+02,    1.904762e+02,    5.000000e+00
    7052,    1.882353e+02,    1.964286e+02,    5.000000e+00
    7053,    1.823529e+02,    2.023810e+02,    5.000000e+00
    7054,    1.882353e+02,    2.083333e+02,    5.000000e+00
    7055,    1.823529e+02,    2.142857e+02,    5.000000e+00
    7056,    1.882353e+02,    2.202381e+02,    5.000000e+00
    7057,    1.823529e+02,    2.261905e+02,    5.000000e+00
    7058,    1.882353e+02,    2.321429e+02,    5.000000e+00
    7059,    1.823529e+02,    2.380952e+02,    5.000000e+00
    7060,    1.882353e+02,    2.440476e+02,    5.000000e+00
    7061,    1.941176e+02,    1.190476e+01,    5.000000e+00
    7062,    1.941176e+02,    2.380952e+01,    5.000000e+00
    7063,    1.941176e+02,    3.571429e+01,    5.000000e+00
    7064,    1.941176e+02,    4.761905e+01,    5.000000e+00
    7065,    1.941176e+02,    5.952381e+01,    5.000000e+00
    7066,    1.941176e+02,    7.142857e+01,    5.000000e+00
    7067,    1.941176e+02,    8.333333e+01,    5.000000e+00
    7068,    1.941176e+02,    9.523810e+01,    5.000000e+00
    7069,    1.941176e+02,    1.071429e+02,    5.000000e+00
    7070,    1.941176e+02,    1.190476e+02,    5.000000e+00
    7071,    1.941176e+02,    1.309524e+02,    5.000000e+00
    7072,    1.941176e+02,    1.428571e+02,    5.000000e+00
    7073,    1.941176e+02,    1.547619e+02,    5.000000e+00
    7074,    1.941176e+02,    1.666667e+02,    5.000000e+00
    7075,    1.941176e+02,    1.785714e+02,    5.000000e+00
    7076,    1.941176e+02,    1.904762e+02,    5.000000e+00
    7077,    1.941176e+02,    2.023810e+02,    5.000000e+00
    7078,    1.941176e+02,    2.142857e+02,    5.000000e+00
    7079,    1.941176e+02,    2.261905e+02,    5.000000e+00
    7080,    1.941176e+02,    2.380952e+02,    5.000000e+00
    7081,    1.882353e+02,    2.500000e+02,    0.000000e+00
    7082,    1.764706e+02,    2.500000e+02,    0.000000e+00
    7083,    1.647059e+02,    2.500000e+02,    0.000000e+00
    7084,    1.529412e+02,    2.500000e+02,    0.000000e+00
    7085,    1.411765e+02,    2.500000e+02,    0.000000e+00
    7086,    1.294118e+02,    2.500000e+02,    0.000000e+00
    7087,    1.176471e+02,    2.500000e+02,    0.000000e+00
    7088,    1.058824e+02,    2.500000e+02,    0.000000e+00
    7089,    9.411765e+01,    2.500000e+02,    0.000000e+00
    7090,    8.235294e+01,    2.500000e+02,    0.000000e+00
    7091,    7.058824e+01,    2.500000e+02,    0.000000e+00
    7092,    5.882353e+01,    2.500000e+02,    0.000000e+00
    7093,    4.705882e+01,    2.500000e+02,    0.000000e+00
    7094,    3.529412e+01,    2.500000e+02,    0.000000e+00
    7095,    2.352941e+01,    2.500000e+02,    0.000000e+00
    7096,    1.176471e+01,    2.500000e+02,    0.000000e+00
    7097,    1.176471e+01,    1.190476e+01,    0.000000e+00
    7098,    1.176471e+01,    2.380952e+01,    0.000000e+00
    7099,    1.176471e+01,    3.571429e+01,    0.000000e+00
    7100,    1.176471e+01,    4.761905e+01,    0.000000e+00
    7101,    1.176471e+01,    5.952381e+01,    0.000000e+00
    7102,    1.176471e+01,    7.142857e+01,    0.000000e+00
    7103,    1.176471e+01,    8.333333e+01,    0.000000e+00
    7104,    1.176471e+01,    9.523810e+01,    0.000000e+00
    7105,    1.176471e+01,    1.071429e+02,    0.000000e+00
    7106,    1.176471e+01,    1.190476e+02,    0.000000e+00
    7107,    1.176471e+01,    1.309524e+02,    0.000000e+00
    7108,    1.176471e+01,    1.428571e+02,    0.000000e+00
    7109,    1.176471e+01,    1.547619e+02,    0.000000e+00
    7110,    1.176471e+01,    1.666667e+02,    0.000000e+00
    7111,    1.176471e+01,    1.785714e+02,    0.000000e+00
    7112,    1.176471e+01,    1.904762e+02,    0.000000e+00
    7113,    1.176471e+01,    2.023810e+02,    0.000000e+00
    7114,    1.176471e+01,    2.142857e+02,    0.000000e+00
    7115,    1.176471e+01,    2.261905e+02,    0.000000e+00
    7116,    1.176471e+01,    2.380952e+02,    0.000000e+00
    7117,    2.352941e+01,    1.190476e+01,    0.000000e+00
    7118,    2.352941e+01,    2.380952e+01,    0.000000e+00
    7119,    2.352941e+01,    3.571429e+01,    0.000000e+00
    7120,    2.352941e+01,    4.761905e+01,    0.000000e+00
    7121,    2.352941e+01,    5.952381e+01,    0.000000e+00
    7122,    2.352941e+01,    7.142857e+01,    0.000000e+00
    7123,    2.352941e+01,    8.333333e+01,    0.000000e+00
    7124,    2.352941e+01,    9.523810e+01,    0.000000e+00
    7125,    2.352941e+01,    1.071429e+02,    0.000000e+00
    7126,    2.352941e+01,    1.190476e+02,    0.000000e+00
    7127,    2.352941e+01,    1.309524e+02,    0.000000e+00
    7128,    2.352941e+01,    1.428571e+02,    0.000000e+00
    7129,    2.352941e+01,    1.547619e+02,    0.000000e+00
    7130,    2.352941e+01,    1.666667e+02,    0.000000e+00
    7131,    2.352941e+01,    1.785714e+02,    0.000000e+00
    7132,    2.352941e+01,    1.904762e+02,    0.000000e+00
    7133,    2.352941e+01,    2.023810e+02,    0.000000e+00
    7134,    2.352941e+01,    2.142857e+02,    0.000000e+00
    7135,    2.352941e+01,    2.261905e+02,    0.000000e+00
    7136,    2.352941e+01,    2.380952e+02,    0.000000e+00
    7137,    3.529412e+01,    1.190476e+01,    0.000000e+00
    7138,    3.529412e+01,    2.380952e+01,    0.000000e+00
    7139,    3.529412e+01,    3.571429e+01,    0.000000e+00
    7140,    3.529412e+01,    4.761905e+01,    0.000000e+00
    7141,    3.529412e+01,    5.952381e+01,    0.000000e+00
    7142,    3.529412e+01,    7.142857e+01,    0.000000e+00
    7143,    3.529412e+01,    8.333333e+01,    0.000000e+00
    7144,    3.529412e+01,    9.523810e+01,    0.000000e+00
    7145,    3.529412e+01,    1.071429e+02,    0.000000e+00
    7146,    3.529412e+01,    1.190476e+02,    0.000000e+00
    7147,    3.529412e+01,    1.309524e+02,    0.000000e+00
    7148,    3.529412e+01,    1.428571e+02,    0.000000e+00
    7149,    3.529412e+01,    1.547619e+02,    0.000000e+00
    7150,    3.529412e+01,    1.666667e+02,    0.000000e+00
    7151,    3.529412e+01,    1.785714e+02,    0.000000e+00
    7152,    3.529412e+01,    1.904762e+02,    0.000000e+00
    7153,    3.529412e+01,    2.023810e+02,    0.000000e+00
    7154,    3.529412e+01,    2.142857e+02,    0.000000e+00
    7155,    3.529412e+01,    2.261905e+02,    0.000000e+00
    7156,    3.529412e+01,    2.380952e+02,    0.000000e+00
    7157,    4.705882e+01,    1.190476e+01,    0.000000e+00
    7158,    4.705882e+01,    2.380952e+01,    0.000000e+00
    7159,    4.705882e+01,    3.571429e+01,    0.000000e+00
    7160,    4.705882e+01,    4.761905e+01,    0.000000e+00
    7161,    4.705882e+01,    5.952381e+01,    0.000000e+00
    7162,    4.705882e+01,    7.142857e+01,    0.000000e+00
    7163,    4.705882e+01,    8.333333e+01,    0.000000e+00
    7164,    4.705882e+01,    9.523810e+01,    0.000000e+00
    7165,    4.705882e+01,    1.071429e+02,    0.000000e+00
    7166,    4.705882e+01,    1.190476e+02,    0.000000e+00
    7167,    4.705882e+01,    1.309524e+02,    0.000000e+00
    7168,    4.705882e+01,    1.428571e+02,    0.000000e+00
    7169,    4.705882e+01,    1.547619e+02,    0.000000e+00
    7170,    4.705882e+01,    1.666667e+02,    0.000000e+00
    7171,    4.705882e+01,    1.785714e+02,    0.000000e+00
    7172,    4.705882e+01,    1.904762e+02,    0.000000e+00
    7173,    4.705882e+01,    2.023810e+02,    0.000000e+00
    7174,    4.705882e+01,    2.142857e+02,    0.000000e+00
    7175,    4.705882e+01,    2.261905e+02,    0.000000e+00
    7176,    4.705882e+01,    2.380952e+02,    0.000000e+00
    7177,    5.882353e+01,    1.190476e+01,    0.000000e+00
    7178,    5.882353e+01,    2.380952e+01,    0.000000e+00
    7179,    5.882353e+01,    3.571429e+01,    0.000000e+00
    7180,    5.882353e+01,    4.761905e+01,    0.000000e+00
    7181,    5.882353e+01,    5.952381e+01,    0.000000e+00
    7182,    5.882353e+01,    7.142857e+01,    0.000000e+00
    7183,    5.882353e+01,    8.333333e+01,    0.000000e+00
    7184,    5.882353e+01,    9.523810e+01,    0.000000e+00
    7185,    5.882353e+01,    1.071429e+02,    0.000000e+00
    7186,    5.882353e+01,    1.190476e+02,    0.000000e+00
    7187,    5.882353e+01,    1.309524e+02,    0.000000e+00
    7188,    5.882353e+01,    1.428571e+02,    0.000000e+00
    7189,    5.882353e+01,    1.547619e+02,    0.000000e+00
    7190,    5.882353e+01,    1.666667e+02,    0.000000e+00
    7191,    5.882353e+01,    1.785714e+02,    0.000000e+00
    7192,    5.882353e+01,    1.904762e+02,    0.000000e+00
    7193,    5.882353e+01,    2.023810e+02,    0.000000e+00
    7194,    5.882353e+01,    2.142857e+02,    0.000000e+00
    7195,    5.882353e+01,    2.261905e+02,    0.000000e+00
    7196,    5.882353e+01,    2.380952e+02,    0.000000e+00
    7197,    7.058824e+01,    1.190476e+01,    0.000000e+00
    7198,    7.058824e+01,    2.380952e+01,    0.000000e+00
    7199,    7.058824e+01,    3.571429e+01,    0.000000e+00
    7200,    7.058824e+01,    4.761905e+01,    0.000000e+00
    7201,    7.058824e+01,    5.952381e+01,    0.000000e+00
    7202,    7.058824e+01,    7.142857e+01,    0.000000e+00
    7203,    7.058824e+01,    8.333333e+01,    0.000000e+00
    7204,    7.058824e+01,    9.523810e+01,    0.000000e+00
    7205,    7.058824e+01,    1.071429e+02,    0.000000e+00
    7206,    7.058824e+01,    1.190476e+02,    0.000000e+00
    7207,    7.058824e+01,    1.309524e+02,    0.000000e+00
    7208,    7.058824e+01,    1.428571e+02,    0.000000e+00
    7209,    7.058824e+01,    1.547619e+02,    0.000000e+00
    7210,    7.058824e+01,    1.666667e+02,    0.000000e+00
    7211,    7.058824e+01,    1.785714e+02,    0.000000e+00
    7212,    7.058824e+01,    1.904762e+02,    0.000000e+00
    7213,    7.058824e+01,    2.023810e+02,    0.000000e+00
    7214,    7.058824e+01,    2.142857e+02,    0.000000e+00
    7215,    7.058824e+01,    2.261905e+02,    0.000000e+00
    7216,    7.058824e+01,    2.380952e+02,    0.000000e+00
    7217,    8.235294e+01,    1.190476e+01,    0.000000e+00
    7218,    8.235294e+01,    2.380952e+01,    0.000000e+00
    7219,    8.235294e+01,    3.571429e+01,    0.000000e+00
    7220,    8.235294e+01,    4.761905e+01,    0.000000e+00
    7221,    8.235294e+01,    5.952381e+01,    0.000000e+00
    7222,    8.235294e+01,    7.142857e+01,    0.000000e+00
    7223,    8.235294e+01,    8.333333e+01,    0.000000e+00
    7224,    8.235294e+01,    9.523810e+01,    0.000000e+00
    7225,    8.235294e+01,    1.071429e+02,    0.000000e+00
    7226,    8.235294e+01,    1.190476e+02,    0.000000e+00
    7227,    8.235294e+01,    1.309524e+02,    0.000000e+00
    7228,    8.235294e+01,    1.428571e+02,    0.000000e+00
    7229,    8.235294e+01,    1.547619e+02,    0.000000e+00
    7230,    8.235294e+01,    1.666667e+02,    0.000000e+00
    7231,    8.235294e+01,    1.785714e+02,    0.000000e+00
    7232,    8.235294e+01,    1.904762e+02,    0.000000e+00
    7233,    8.235294e+01,    2.023810e+02,    0.000000e+00
    7234,    8.235294e+01,    2.142857e+02,    0.000000e+00
    7235,    8.235294e+01,    2.261905e+02,    0.000000e+00
    7236,    8.235294e+01,    2.380952e+02,    0.000000e+00
    7237,    9.411765e+01,    1.190476e+01,    0.000000e+00
    7238,    9.411765e+01,    2.380952e+01,    0.000000e+00
    7239,    9.411765e+01,    3.571429e+01,    0.000000e+00
    7240,    9.411765e+01,    4.761905e+01,    0.000000e+00
    7241,    9.411765e+01,    5.952381e+01,    0.000000e+00
    7242,    9.411765e+01,    7.142857e+01,    0.000000e+00
    7243,    9.411765e+01,    8.333333e+01,    0.000000e+00
    7244,    9.411765e+01,    9.523810e+01,    0.000000e+00
    7245,    9.411765e+01,    1.071429e+02,    0.000000e+00
    7246,    9.411765e+01,    1.190476e+02,    0.000000e+00
    7247,    9.411765e+01,    1.309524e+02,    0.000000e+00
    7248,    9.411765e+01,    1.428571e+02,    0.000000e+00
    7249,    9.411765e+01,    1.547619e+02,    0.000000e+00
    7250,    9.411765e+01,    1.666667e+02,    0.000000e+00
    7251,    9.411765e+01,    1.785714e+02,    0.000000e+00
    7252,    9.411765e+01,    1.904762e+02,    0.000000e+00
    7253,    9.411765e+01,    2.023810e+02,    0.000000e+00
    7254,    9.411765e+01,    2.142857e+02,    0.000000e+00
    7255,    9.411765e+01,    2.261905e+02,    0.000000e+00
    7256,    9.411765e+01,    2.380952e+02,    0.000000e+00
    7257,    1.058824e+02,    1.190476e+01,    0.000000e+00
    7258,    1.058824e+02,    2.380952e+01,    0.000000e+00
    7259,    1.058824e+02,    3.571429e+01,    0.000000e+00
    7260,    1.058824e+02,    4.761905e+01,    0.000000e+00
    7261,    1.058824e+02,    5.952381e+01,    0.000000e+00
    7262,    1.058824e+02,    7.142857e+01,    0.000000e+00
    7263,    1.058824e+02,    8.333333e+01,    0.000000e+00
    7264,    1.058824e+02,    9.523810e+01,    0.000000e+00
    7265,    1.058824e+02,    1.071429e+02,    0.000000e+00
    7266,    1.058824e+02,    1.190476e+02,    0.000000e+00
    7267,    1.058824e+02,    1.309524e+02,    0.000000e+00
    7268,    1.058824e+02,    1.428571e+02,    0.000000e+00
    7269,    1.058824e+02,    1.547619e+02,    0.000000e+00
    7270,    1.058824e+02,    1.666667e+02,    0.000000e+00
    7271,    1.058824e+02,    1.785714e+02,    0.000000e+00
    7272,    1.058824e+02,    1.904762e+02,    0.000000e+00
    7273,    1.058824e+02,    2.023810e+02,    0.000000e+00
    7274,    1.058824e+02,    2.142857e+02,    0.000000e+00
    7275,    1.058824e+02,    2.261905e+02,    0.000000e+00
    7276,    1.058824e+02,    2.380952e+02,    0.000000e+00
    7277,    1.176471e+02,    1.190476e+01,    0.000000e+00
    7278,    1.176471e+02,    2.380952e+01,    0.000000e+00
    7279,    1.176471e+02,    3.571429e+01,    0.000000e+00
    7280,    1.176471e+02,    4.761905e+01,    0.000000e+00
    7281,    1.176471e+02,    5.952381e+01,    0.000000e+00
    7282,    1.176471e+02,    7.142857e+01,    0.000000e+00
    7283,    1.176471e+02,    8.333333e+01,    0.000000e+00
    7284,    1.176471e+02,    9.523810e+01,    0.000000e+00
    7285,    1.176471e+02,    1.071429e+02,    0.000000e+00
    7286,    1.176471e+02,    1.190476e+02,    0.000000e+00
    7287,    1.176471e+02,    1.309524e+02,    0.000000e+00
    7288,    1.176471e+02,    1.428571e+02,    0.000000e+00
    7289,    1.176471e+02,    1.547619e+02,    0.000000e+00
    7290,    1.176471e+02,    1.666667e+02,    0.000000e+00
    7291,    1.176471e+02,    1.785714e+02,    0.000000e+00
    7292,    1.176471e+02,    1.904762e+02,    0.000000e+00
    7293,    1.176471e+02,    2.023810e+02,    0.000000e+00
    7294,    1.176471e+02,    2.142857e+02,    0.000000e+00
    7295,    1.176471e+02,    2.261905e+02,    0.000000e+00
    7296,    1.176471e+02,    2.380952e+02,    0.000000e+00
    7297,    1.294118e+02,    1.190476e+01,    0.000000e+00
    7298,    1.294118e+02,    2.380952e+01,    0.000000e+00
    7299,    1.294118e+02,    3.571429e+01,    0.000000e+00
    7300,    1.294118e+02,    4.761905e+01,    0.000000e+00
    7301,    1.294118e+02,    5.952381e+01,    0.000000e+00
    7302,    1.294118e+02,    7.142857e+01,    0.000000e+00
    7303,    1.294118e+02,    8.333333e+01,    0.000000e+00
    7304,    1.294118e+02,    9.523810e+01,    0.000000e+00
    7305,    1.294118e+02,    1.071429e+02,    0.000000e+00
    7306,    1.294118e+02,    1.190476e+02,    0.000000e+00
    7307,    1.294118e+02,    1.309524e+02,    0.000000e+00
    7308,    1.294118e+02,    1.428571e+02,    0.000000e+00
    7309,    1.294118e+02,    1.547619e+02,    0.000000e+00
    7310,    1.294118e+02,    1.666667e+02,    0.000000e+00
    7311,    1.294118e+02,    1.785714e+02,    0.000000e+00
    7312,    1.294118e+02,    1.904762e+02,    0.000000e+00
    7313,    1.294118e+02,    2.023810e+02,    0.000000e+00
    7314,    1.294118e+02,    2.142857e+02,    0.000000e+00
    7315,    1.294118e+02,    2.261905e+02,    0.000000e+00
    7316,    1.294118e+02,    2.380952e+02,    0.000000e+00
    7317,    1.411765e+02,    1.190476e+01,    0.000000e+00
    7318,    1.411765e+02,    2.380952e+01,    0.000000e+00
    7319,    1.411765e+02,    3.571429e+01,    0.000000e+00
    7320,    1.411765e+02,    4.761905e+01,    0.000000e+00
    7321,    1.411765e+02,    5.952381e+01,    0.000000e+00
    7322,    1.411765e+02,    7.142857e+01,    0.000000e+00
    7323,    1.411765e+02,    8.333333e+01,    0.000000e+00
    7324,    1.411765e+02,    9.523810e+01,    0.000000e+00
    7325,    1.411765e+02,    1.071429e+02,    0.000000e+00
    7326,    1.411765e+02,    1.190476e+02,    0.000000e+00
    7327,    1.411765e+02,    1.309524e+02,    0.000000e+00
    7328,    1.411765e+02,    1.428571e+02,    0.000000e+00
    7329,    1.411765e+02,    1.547619e+02,    0.000000e+00
    7330,    1.411765e+02,    1.666667e+02,    0.000000e+00
    7331,    1.411765e+02,    1.785714e+02,    0.000000e+00
    7332,    1.411765e+02,    1.904762e+02,    0.000000e+00
    7333,    1.411765e+02,    2.023810e+02,    0.000000e+00
    7334,    1.411765e+02,    2.142857e+02,    0.000000e+00
    7335,    1.411765e+02,    2.261905e+02,    0.000000e+00
    7336,    1.411765e+02,    2.380952e+02,    0.000000e+00
    7337,    1.529412e+02,    1.190476e+01,    0.000000e+00
    7338,    1.529412e+02,    2.380952e+01,    0.000000e+00
    7339,    1.529412e+02,    3.571429e+01,    0.000000e+00
    7340,    1.529412e+02,    4.761905e+01,    0.000000e+00
    7341,    1.529412e+02,    5.952381e+01,    0.000000e+00
    7342,    1.529412e+02,    7.142857e+01,    0.000000e+00
    7343,    1.529412e+02,    8.333333e+01,    0.000000e+00
    7344,    1.529412e+02,    9.523810e+01,    0.000000e+00
    7345,    1.529412e+02,    1.071429e+02,    0.000000e+00
    7346,    1.529412e+02,    1.190476e+02,    0.000000e+00
    7347,    1.529412e+02,    1.309524e+02,    0.000000e+00
    7348,    1.529412e+02,    1.428571e+02,    0.000000e+00
    7349,    1.529412e+02,    1.547619e+02,    0.000000e+00
    7350,    1.529412e+02,    1.666667e+02,    0.000000e+00
    7351,    1.529412e+02,    1.785714e+02,    0.000000e+00
    7352,    1.529412e+02,    1.904762e+02,    0.000000e+00
    7353,    1.529412e+02,    2.023810e+02,    0.000000e+00
    7354,    1.529412e+02,    2.142857e+02,    0.000000e+00
    7355,    1.529412e+02,    2.261905e+02,    0.000000e+00
    7356,    1.529412e+02,    2.380952e+02,    0.000000e+00
    7357,    1.647059e+02,    1.190476e+01,    0.000000e+00
    7358,    1.647059e+02,    2.380952e+01,    0.000000e+00
    7359,    1.647059e+02,    3.571429e+01,    0.000000e+00
    7360,    1.647059e+02,    4.761905e+01,    0.000000e+00
    7361,    1.647059e+02,    5.952381e+01,    0.000000e+00
    7362,    1.647059e+02,    7.142857e+01,    0.000000e+00
    7363,    1.647059e+02,    8.333333e+01,    0.000000e+00
    7364,    1.647059e+02,    9.523810e+01,    0.000000e+00
    7365,    1.647059e+02,    1.071429e+02,    0.000000e+00
    7366,    1.647059e+02,    1.190476e+02,    0.000000e+00
    7367,    1.647059e+02,    1.309524e+02,    0.000000e+00
    7368,    1.647059e+02,    1.428571e+02,    0.000000e+00
    7369,    1.647059e+02,    1.547619e+02,    0.000000e+00
    7370,    1.647059e+02,    1.666667e+02,    0.000000e+00
    7371,    1.647059e+02,    1.785714e+02,    0.000000e+00
    7372,    1.647059e+02,    1.904762e+02,    0.000000e+00
    7373,    1.647059e+02,    2.023810e+02,    0.000000e+00
    7374,    1.647059e+02,    2.142857e+02,    0.000000e+00
    7375,    1.647059e+02,    2.261905e+02,    0.000000e+00
    7376,    1.647059e+02,    2.380952e+02,    0.000000e+00
    7377,    1.764706e+02,    1.190476e+01,    0.000000e+00
    7378,    1.764706e+02,    2.380952e+01,    0.000000e+00
    7379,    1.764706e+02,    3.571429e+01,    0.000000e+00
    7380,    1.764706e+02,    4.761905e+01,    0.000000e+00
    7381,    1.764706e+02,    5.952381e+01,    0.000000e+00
    7382,    1.764706e+02,    7.142857e+01,    0.000000e+00
    7383,    1.764706e+02,    8.333333e+01,    0.000000e+00
    7384,    1.764706e+02,    9.523810e+01,    0.000000e+00
    7385,    1.764706e+02,    1.071429e+02,    0.000000e+00
    7386,    1.764706e+02,    1.190476e+02,    0.000000e+00
    7387,    1.764706e+02,    1.309524e+02,    0.000000e+00
    7388,    1.764706e+02,    1.428571e+02,    0.000000e+00
    7389,    1.764706e+02,    1.547619e+02,    0.000000e+00
    7390,    1.764706e+02,    1.666667e+02,    0.000000e+00
    7391,    1.764706e+02,    1.785714e+02,    0.000000e+00
    7392,    1.764706e+02,    1.904762e+02,    0.000000e+00
    7393,    1.764706e+02,    2.023810e+02,    0.000000e+00
    7394,    1.764706e+02,    2.142857e+02,    0.000000e+00
    7395,    1.764706e+02,    2.261905e+02,    0.000000e+00
    7396,    1.764706e+02,    2.380952e+02,    0.000000e+00
    7397,    1.882353e+02,    1.190476e+01,    0.000000e+00
    7398,    1.882353e+02,    2.380952e+01,    0.000000e+00
    7399,    1.882353e+02,    3.571429e+01,    0.000000e+00
    7400,    1.882353e+02,    4.761905e+01,    0.000000e+00
    7401,    1.882353e+02,    5.952381e+01,    0.000000e+00
    7402,    1.882353e+02,    7.142857e+01,    0.000000e+00
    7403,    1.882353e+02,    8.333333e+01,    0.000000e+00
    7404,    1.882353e+02,    9.523810e+01,    0.000000e+00
    7405,    1.882353e+02,    1.071429e+02,    0.000000e+00
    7406,    1.882353e+02,    1.190476e+02,    0.000000e+00
    7407,    1.882353e+02,    1.309524e+02,    0.000000e+00
    7408,    1.882353e+02,    1.428571e+02,    0.000000e+00
    7409,    1.882353e+02,    1.547619e+02,    0.000000e+00
    7410,    1.882353e+02,    1.666667e+02,    0.000000e+00
    7411,    1.882353e+02,    1.785714e+02,    0.000000e+00
    7412,    1.882353e+02,    1.904762e+02,    0.000000e+00
    7413,    1.882353e+02,    2.023810e+02,    0.000000e+00
    7414,    1.882353e+02,    2.142857e+02,    0.000000e+00
    7415,    1.882353e+02,    2.261905e+02,    0.000000e+00
    7416,    1.882353e+02,    2.380952e+02,    0.000000e+00
    7417,   -2.500000e+02,   -1.500000e+02,    0.000000e+00
    7418,   -5.952381e+00,   -1.500000e+02,    5.000000e+00
    7419,   -1.785714e+01,   -1.500000e+02,    5.000000e+00
    7420,   -2.976190e+01,   -1.500000e+02,    5.000000e+00
    7421,   -4.166667e+01,   -1.500000e+02,    5.000000e+00
    7422,   -5.357143e+01,   -1.500000e+02,    5.000000e+00
    7423,   -6.547619e+01,   -1.500000e+02,    5.000000e+00
    7424,   -7.738095e+01,   -1.500000e+02,    5.000000e+00
    7425,   -8.928571e+01,   -1.500000e+02,    5.000000e+00
    7426,   -1.011905e+02,   -1.500000e+02,    5.000000e+00
    7427,   -1.130952e+02,   -1.500000e+02,    5.000000e+00
    7428,   -1.250000e+02,   -1.500000e+02,    5.000000e+00
    7429,   -1.369048e+02,   -1.500000e+02,    5.000000e+00
    7430,   -1.488095e+02,   -1.500000e+02,    5.000000e+00
    7431,   -1.607143e+02,   -1.500000e+02,    5.000000e+00
    7432,   -1.726190e+02,   -1.500000e+02,    5.000000e+00
    7433,   -1.845238e+02,   -1.500000e+02,    5.000000e+00
    7434,   -1.964286e+02,   -1.500000e+02,    5.000000e+00
    7435,   -2.083333e+02,   -1.500000e+02,    5.000000e+00
    7436,   -2.202381e+02,   -1.500000e+02,    5.000000e+00
    7437,   -2.321429e+02,   -1.500000e+02,    5.000000e+00
    7438,   -2.440476e+02,   -1.500000e+02,    5.000000e+00
    7439,    0.000000e+00,   -1.500000e+02,    0.000000e+00
    7440,   -2.440476e+02,   -1.500000e+02,   -5.000000e+00
    7441,   -2.321429e+02,   -1.500000e+02,   -5.000000e+00
    7442,   -2.202381e+02,   -1.500000e+02,   -5.000000e+00
    7443,   -2.083333e+02,   -1.500000e+02,   -5.000000e+00
    7444,   -1.964286e+02,   -1.500000e+02,   -5.000000e+00
    7445,   -1.845238e+02,   -1.500000e+02,   -5.000000e+00
    7446,   -1.726190e+02,   -1.500000e+02,   -5.000000e+00
    7447,   -1.607143e+02,   -1.500000e+02,   -5.000000e+00
    7448,   -1.488095e+02,   -1.500000e+02,   -5.000000e+00
    7449,   -1.369048e+02,   -1.500000e+02,   -5.000000e+00
    7450,   -1.250000e+02,   -1.500000e+02,   -5.000000e+00
    7451,   -1.130952e+02,   -1.500000e+02,   -5.000000e+00
    7452,   -1.011905e+02,   -1.500000e+02,   -5.000000e+00
    7453,   -8.928571e+01,   -1.500000e+02,   -5.000000e+00
    7454,   -7.738095e+01,   -1.500000e+02,   -5.000000e+00
    7455,   -6.547619e+01,   -1.500000e+02,   -5.000000e+00
    7456,   -5.357143e+01,   -1.500000e+02,   -5.000000e+00
    7457,   -4.166667e+01,   -1.500000e+02,   -5.000000e+00
    7458,   -2.976190e+01,   -1.500000e+02,   -5.000000e+00
    7459,   -1.785714e+01,   -1.500000e+02,   -5.000000e+00
    7460,   -5.952381e+00,   -1.500000e+02,   -5.000000e+00
    7461,   -2.380952e+02,   -1.500000e+02,    0.000000e+00
    7462,   -2.261905e+02,   -1.500000e+02,    0.000000e+00
    7463,   -2.142857e+02,   -1.500000e+02,    0.000000e+00
    7464,   -2.023810e+02,   -1.500000e+02,    0.000000e+00
    7465,   -1.904762e+02,   -1.500000e+02,    0.000000e+00
    7466,   -1.785714e+02,   -1.500000e+02,    0.000000e+00
    7467,   -1.666667e+02,   -1.500000e+02,    0.000000e+00
    7468,   -1.547619e+02,   -1.500000e+02,    0.000000e+00
    7469,   -1.428571e+02,   -1.500000e+02,    0.000000e+00
    7470,   -1.309524e+02,   -1.500000e+02,    0.000000e+00
    7471,   -1.190476e+02,   -1.500000e+02,    0.000000e+00
    7472,   -1.071429e+02,   -1.500000e+02,    0.000000e+00
    7473,   -9.523810e+01,   -1.500000e+02,    0.000000e+00
    7474,   -8.333333e+01,   -1.500000e+02,    0.000000e+00
    7475,   -7.142857e+01,   -1.500000e+02,    0.000000e+00
    7476,   -5.952381e+01,   -1.500000e+02,    0.000000e+00
    7477,   -4.761905e+01,   -1.500000e+02,    0.000000e+00
    7478,   -3.571429e+01,   -1.500000e+02,    0.000000e+00
    7479,   -2.380952e+01,   -1.500000e+02,    0.000000e+00
    7480,   -1.190476e+01,   -1.500000e+02,    0.000000e+00
    7481,   -2.500000e+02,   -1.442308e+02,   -5.000000e+00
    7482,   -2.500000e+02,   -1.326923e+02,   -5.000000e+00
    7483,   -2.500000e+02,   -1.211538e+02,   -5.000000e+00
    7484,   -2.500000e+02,   -1.096154e+02,   -5.000000e+00
    7485,   -2.500000e+02,   -9.807692e+01,   -5.000000e+00
    7486,   -2.500000e+02,   -8.653846e+01,   -5.000000e+00
    7487,   -2.500000e+02,   -7.500000e+01,   -5.000000e+00
    7488,   -2.500000e+02,   -6.346154e+01,   -5.000000e+00
    7489,   -2.500000e+02,   -5.192308e+01,   -5.000000e+00
    7490,   -2.500000e+02,   -4.038462e+01,   -5.000000e+00
    7491,   -2.500000e+02,   -2.884615e+01,   -5.000000e+00
    7492,   -2.500000e+02,   -1.730769e+01,   -5.000000e+00
    7493,   -2.500000e+02,   -5.769231e+00,   -5.000000e+00
    7494,    0.000000e+00,   -1.442308e+02,   -5.000000e+00
    7495,    0.000000e+00,   -1.326923e+02,   -5.000000e+00
    7496,    0.000000e+00,   -1.211538e+02,   -5.000000e+00
    7497,    0.000000e+00,   -1.096154e+02,   -5.000000e+00
    7498,    0.000000e+00,   -9.807692e+01,   -5.000000e+00
    7499,    0.000000e+00,   -8.653846e+01,   -5.000000e+00
    7500,    0.000000e+00,   -7.500000e+01,   -5.000000e+00
    7501,    0.000000e+00,   -6.346154e+01,   -5.000000e+00
    7502,    0.000000e+00,   -5.192308e+01,   -5.000000e+00
    7503,    0.000000e+00,   -4.038462e+01,   -5.000000e+00
    7504,    0.000000e+00,   -2.884615e+01,   -5.000000e+00
    7505,    0.000000e+00,   -1.730769e+01,   -5.000000e+00
    7506,    0.000000e+00,   -5.769231e+00,   -5.000000e+00
    7507,   -1.190476e+01,   -1.442308e+02,   -5.000000e+00
    7508,   -5.952381e+00,   -1.384615e+02,   -5.000000e+00
    7509,   -2.380952e+01,   -1.442308e+02,   -5.000000e+00
    7510,   -1.785714e+01,   -1.384615e+02,   -5.000000e+00
    7511,   -3.571429e+01,   -1.442308e+02,   -5.000000e+00
    7512,   -2.976190e+01,   -1.384615e+02,   -5.000000e+00
    7513,   -4.761905e+01,   -1.442308e+02,   -5.000000e+00
    7514,   -4.166667e+01,   -1.384615e+02,   -5.000000e+00
    7515,   -5.952381e+01,   -1.442308e+02,   -5.000000e+00
    7516,   -5.357143e+01,   -1.384615e+02,   -5.000000e+00
    7517,   -7.142857e+01,   -1.442308e+02,   -5.000000e+00
    7518,   -6.547619e+01,   -1.384615e+02,   -5.000000e+00
    7519,   -8.333333e+01,   -1.442308e+02,   -5.000000e+00
    7520,   -7.738095e+01,   -1.384615e+02,   -5.000000e+00
    7521,   -9.523810e+01,   -1.442308e+02,   -5.000000e+00
    7522,   -8.928571e+01,   -1.384615e+02,   -5.000000e+00
    7523,   -1.071429e+02,   -1.442308e+02,   -5.000000e+00
    7524,   -1.011905e+02,   -1.384615e+02,   -5.000000e+00
    7525,   -1.190476e+02,   -1.442308e+02,   -5.000000e+00
    7526,   -1.130952e+02,   -1.384615e+02,   -5.000000e+00
    7527,   -1.309524e+02,   -1.442308e+02,   -5.000000e+00
    7528,   -1.250000e+02,   -1.384615e+02,   -5.000000e+00
    7529,   -1.428571e+02,   -1.442308e+02,   -5.000000e+00
    7530,   -1.369048e+02,   -1.384615e+02,   -5.000000e+00
    7531,   -1.547619e+02,   -1.442308e+02,   -5.000000e+00
    7532,   -1.488095e+02,   -1.384615e+02,   -5.000000e+00
    7533,   -1.666667e+02,   -1.442308e+02,   -5.000000e+00
    7534,   -1.607143e+02,   -1.384615e+02,   -5.000000e+00
    7535,   -1.785714e+02,   -1.442308e+02,   -5.000000e+00
    7536,   -1.726190e+02,   -1.384615e+02,   -5.000000e+00
    7537,   -1.904762e+02,   -1.442308e+02,   -5.000000e+00
    7538,   -1.845238e+02,   -1.384615e+02,   -5.000000e+00
    7539,   -2.023810e+02,   -1.442308e+02,   -5.000000e+00
    7540,   -1.964286e+02,   -1.384615e+02,   -5.000000e+00
    7541,   -2.142857e+02,   -1.442308e+02,   -5.000000e+00
    7542,   -2.083333e+02,   -1.384615e+02,   -5.000000e+00
    7543,   -2.261905e+02,   -1.442308e+02,   -5.000000e+00
    7544,   -2.202381e+02,   -1.384615e+02,   -5.000000e+00
    7545,   -2.380952e+02,   -1.442308e+02,   -5.000000e+00
    7546,   -2.321429e+02,   -1.384615e+02,   -5.000000e+00
    7547,   -2.440476e+02,   -1.384615e+02,   -5.000000e+00
    7548,   -1.190476e+01,   -1.326923e+02,   -5.000000e+00
    7549,   -5.952381e+00,   -1.269231e+02,   -5.000000e+00
    7550,   -2.380952e+01,   -1.326923e+02,   -5.000000e+00
    7551,   -1.785714e+01,   -1.269231e+02,   -5.000000e+00
    7552,   -3.571429e+01,   -1.326923e+02,   -5.000000e+00
    7553,   -2.976190e+01,   -1.269231e+02,   -5.000000e+00
    7554,   -4.761905e+01,   -1.326923e+02,   -5.000000e+00
    7555,   -4.166667e+01,   -1.269231e+02,   -5.000000e+00
    7556,   -5.952381e+01,   -1.326923e+02,   -5.000000e+00
    7557,   -5.357143e+01,   -1.269231e+02,   -5.000000e+00
    7558,   -7.142857e+01,   -1.326923e+02,   -5.000000e+00
    7559,   -6.547619e+01,   -1.269231e+02,   -5.000000e+00
    7560,   -8.333333e+01,   -1.326923e+02,   -5.000000e+00
    7561,   -7.738095e+01,   -1.269231e+02,   -5.000000e+00
    7562,   -9.523810e+01,   -1.326923e+02,   -5.000000e+00
    7563,   -8.928571e+01,   -1.269231e+02,   -5.000000e+00
    7564,   -1.071429e+02,   -1.326923e+02,   -5.000000e+00
    7565,   -1.011905e+02,   -1.269231e+02,   -5.000000e+00
    7566,   -1.190476e+02,   -1.326923e+02,   -5.000000e+00
    7567,   -1.130952e+02,   -1.269231e+02,   -5.000000e+00
    7568,   -1.309524e+02,   -1.326923e+02,   -5.000000e+00
    7569,   -1.250000e+02,   -1.269231e+02,   -5.000000e+00
    7570,   -1.428571e+02,   -1.326923e+02,   -5.000000e+00
    7571,   -1.369048e+02,   -1.269231e+02,   -5.000000e+00
    7572,   -1.547619e+02,   -1.326923e+02,   -5.000000e+00
    7573,   -1.488095e+02,   -1.269231e+02,   -5.000000e+00
    7574,   -1.666667e+02,   -1.326923e+02,   -5.000000e+00
    7575,   -1.607143e+02,   -1.269231e+02,   -5.000000e+00
    7576,   -1.785714e+02,   -1.326923e+02,   -5.000000e+00
    7577,   -1.726190e+02,   -1.269231e+02,   -5.000000e+00
    7578,   -1.904762e+02,   -1.326923e+02,   -5.000000e+00
    7579,   -1.845238e+02,   -1.269231e+02,   -5.000000e+00
    7580,   -2.023810e+02,   -1.326923e+02,   -5.000000e+00
    7581,   -1.964286e+02,   -1.269231e+02,   -5.000000e+00
    7582,   -2.142857e+02,   -1.326923e+02,   -5.000000e+00
    7583,   -2.083333e+02,   -1.269231e+02,   -5.000000e+00
    7584,   -2.261905e+02,   -1.326923e+02,   -5.000000e+00
    7585,   -2.202381e+02,   -1.269231e+02,   -5.000000e+00
    7586,   -2.380952e+02,   -1.326923e+02,   -5.000000e+00
    7587,   -2.321429e+02,   -1.269231e+02,   -5.000000e+00
    7588,   -2.440476e+02,   -1.269231e+02,   -5.000000e+00
    7589,   -1.190476e+01,   -1.211538e+02,   -5.000000e+00
    7590,   -5.952381e+00,   -1.153846e+02,   -5.000000e+00
    7591,   -2.380952e+01,   -1.211538e+02,   -5.000000e+00
    7592,   -1.785714e+01,   -1.153846e+02,   -5.000000e+00
    7593,   -3.571429e+01,   -1.211538e+02,   -5.000000e+00
    7594,   -2.976190e+01,   -1.153846e+02,   -5.000000e+00
    7595,   -4.761905e+01,   -1.211538e+02,   -5.000000e+00
    7596,   -4.166667e+01,   -1.153846e+02,   -5.000000e+00
    7597,   -5.952381e+01,   -1.211538e+02,   -5.000000e+00
    7598,   -5.357143e+01,   -1.153846e+02,   -5.000000e+00
    7599,   -7.142857e+01,   -1.211538e+02,   -5.000000e+00
    7600,   -6.547619e+01,   -1.153846e+02,   -5.000000e+00
    7601,   -8.333333e+01,   -1.211538e+02,   -5.000000e+00
    7602,   -7.738095e+01,   -1.153846e+02,   -5.000000e+00
    7603,   -9.523810e+01,   -1.211538e+02,   -5.000000e+00
    7604,   -8.928571e+01,   -1.153846e+02,   -5.000000e+00
    7605,   -1.071429e+02,   -1.211538e+02,   -5.000000e+00
    7606,   -1.011905e+02,   -1.153846e+02,   -5.000000e+00
    7607,   -1.190476e+02,   -1.211538e+02,   -5.000000e+00
    7608,   -1.130952e+02,   -1.153846e+02,   -5.000000e+00
    7609,   -1.309524e+02,   -1.211538e+02,   -5.000000e+00
    7610,   -1.250000e+02,   -1.153846e+02,   -5.000000e+00
    7611,   -1.428571e+02,   -1.211538e+02,   -5.000000e+00
    7612,   -1.369048e+02,   -1.153846e+02,   -5.000000e+00
    7613,   -1.547619e+02,   -1.211538e+02,   -5.000000e+00
    7614,   -1.488095e+02,   -1.153846e+02,   -5.000000e+00
    7615,   -1.666667e+02,   -1.211538e+02,   -5.000000e+00
    7616,   -1.607143e+02,   -1.153846e+02,   -5.000000e+00
    7617,   -1.785714e+02,   -1.211538e+02,   -5.000000e+00
    7618,   -1.726190e+02,   -1.153846e+02,   -5.000000e+00
    7619,   -1.904762e+02,   -1.211538e+02,   -5.000000e+00
    7620,   -1.845238e+02,   -1.153846e+02,   -5.000000e+00
    7621,   -2.023810e+02,   -1.211538e+02,   -5.000000e+00
    7622,   -1.964286e+02,   -1.153846e+02,   -5.000000e+00
    7623,   -2.142857e+02,   -1.211538e+02,   -5.000000e+00
    7624,   -2.083333e+02,   -1.153846e+02,   -5.000000e+00
    7625,   -2.261905e+02,   -1.211538e+02,   -5.000000e+00
    7626,   -2.202381e+02,   -1.153846e+02,   -5.000000e+00
    7627,   -2.380952e+02,   -1.211538e+02,   -5.000000e+00
    7628,   -2.321429e+02,   -1.153846e+02,   -5.000000e+00
    7629,   -2.440476e+02,   -1.153846e+02,   -5.000000e+00
    7630,   -1.190476e+01,   -1.096154e+02,   -5.000000e+00
    7631,   -5.952381e+00,   -1.038462e+02,   -5.000000e+00
    7632,   -2.380952e+01,   -1.096154e+02,   -5.000000e+00
    7633,   -1.785714e+01,   -1.038462e+02,   -5.000000e+00
    7634,   -3.571429e+01,   -1.096154e+02,   -5.000000e+00
    7635,   -2.976190e+01,   -1.038462e+02,   -5.000000e+00
    7636,   -4.761905e+01,   -1.096154e+02,   -5.000000e+00
    7637,   -4.166667e+01,   -1.038462e+02,   -5.000000e+00
    7638,   -5.952381e+01,   -1.096154e+02,   -5.000000e+00
    7639,   -5.357143e+01,   -1.038462e+02,   -5.000000e+00
    7640,   -7.142857e+01,   -1.096154e+02,   -5.000000e+00
    7641,   -6.547619e+01,   -1.038462e+02,   -5.000000e+00
    7642,   -8.333333e+01,   -1.096154e+02,   -5.000000e+00
    7643,   -7.738095e+01,   -1.038462e+02,   -5.000000e+00
    7644,   -9.523810e+01,   -1.096154e+02,   -5.000000e+00
    7645,   -8.928571e+01,   -1.038462e+02,   -5.000000e+00
    7646,   -1.071429e+02,   -1.096154e+02,   -5.000000e+00
    7647,   -1.011905e+02,   -1.038462e+02,   -5.000000e+00
    7648,   -1.190476e+02,   -1.096154e+02,   -5.000000e+00
    7649,   -1.130952e+02,   -1.038462e+02,   -5.000000e+00
    7650,   -1.309524e+02,   -1.096154e+02,   -5.000000e+00
    7651,   -1.250000e+02,   -1.038462e+02,   -5.000000e+00
    7652,   -1.428571e+02,   -1.096154e+02,   -5.000000e+00
    7653,   -1.369048e+02,   -1.038462e+02,   -5.000000e+00
    7654,   -1.547619e+02,   -1.096154e+02,   -5.000000e+00
    7655,   -1.488095e+02,   -1.038462e+02,   -5.000000e+00
    7656,   -1.666667e+02,   -1.096154e+02,   -5.000000e+00
    7657,   -1.607143e+02,   -1.038462e+02,   -5.000000e+00
    7658,   -1.785714e+02,   -1.096154e+02,   -5.000000e+00
    7659,   -1.726190e+02,   -1.038462e+02,   -5.000000e+00
    7660,   -1.904762e+02,   -1.096154e+02,   -5.000000e+00
    7661,   -1.845238e+02,   -1.038462e+02,   -5.000000e+00
    7662,   -2.023810e+02,   -1.096154e+02,   -5.000000e+00
    7663,   -1.964286e+02,   -1.038462e+02,   -5.000000e+00
    7664,   -2.142857e+02,   -1.096154e+02,   -5.000000e+00
    7665,   -2.083333e+02,   -1.038462e+02,   -5.000000e+00
    7666,   -2.261905e+02,   -1.096154e+02,   -5.000000e+00
    7667,   -2.202381e+02,   -1.038462e+02,   -5.000000e+00
    7668,   -2.380952e+02,   -1.096154e+02,   -5.000000e+00
    7669,   -2.321429e+02,   -1.038462e+02,   -5.000000e+00
    7670,   -2.440476e+02,   -1.038462e+02,   -5.000000e+00
    7671,   -1.190476e+01,   -9.807692e+01,   -5.000000e+00
    7672,   -5.952381e+00,   -9.230769e+01,   -5.000000e+00
    7673,   -2.380952e+01,   -9.807692e+01,   -5.000000e+00
    7674,   -1.785714e+01,   -9.230769e+01,   -5.000000e+00
    7675,   -3.571429e+01,   -9.807692e+01,   -5.000000e+00
    7676,   -2.976190e+01,   -9.230769e+01,   -5.000000e+00
    7677,   -4.761905e+01,   -9.807692e+01,   -5.000000e+00
    7678,   -4.166667e+01,   -9.230769e+01,   -5.000000e+00
    7679,   -5.952381e+01,   -9.807692e+01,   -5.000000e+00
    7680,   -5.357143e+01,   -9.230769e+01,   -5.000000e+00
    7681,   -7.142857e+01,   -9.807692e+01,   -5.000000e+00
    7682,   -6.547619e+01,   -9.230769e+01,   -5.000000e+00
    7683,   -8.333333e+01,   -9.807692e+01,   -5.000000e+00
    7684,   -7.738095e+01,   -9.230769e+01,   -5.000000e+00
    7685,   -9.523810e+01,   -9.807692e+01,   -5.000000e+00
    7686,   -8.928571e+01,   -9.230769e+01,   -5.000000e+00
    7687,   -1.071429e+02,   -9.807692e+01,   -5.000000e+00
    7688,   -1.011905e+02,   -9.230769e+01,   -5.000000e+00
    7689,   -1.190476e+02,   -9.807692e+01,   -5.000000e+00
    7690,   -1.130952e+02,   -9.230769e+01,   -5.000000e+00
    7691,   -1.309524e+02,   -9.807692e+01,   -5.000000e+00
    7692,   -1.250000e+02,   -9.230769e+01,   -5.000000e+00
    7693,   -1.428571e+02,   -9.807692e+01,   -5.000000e+00
    7694,   -1.369048e+02,   -9.230769e+01,   -5.000000e+00
    7695,   -1.547619e+02,   -9.807692e+01,   -5.000000e+00
    7696,   -1.488095e+02,   -9.230769e+01,   -5.000000e+00
    7697,   -1.666667e+02,   -9.807692e+01,   -5.000000e+00
    7698,   -1.607143e+02,   -9.230769e+01,   -5.000000e+00
    7699,   -1.785714e+02,   -9.807692e+01,   -5.000000e+00
    7700,   -1.726190e+02,   -9.230769e+01,   -5.000000e+00
    7701,   -1.904762e+02,   -9.807692e+01,   -5.000000e+00
    7702,   -1.845238e+02,   -9.230769e+01,   -5.000000e+00
    7703,   -2.023810e+02,   -9.807692e+01,   -5.000000e+00
    7704,   -1.964286e+02,   -9.230769e+01,   -5.000000e+00
    7705,   -2.142857e+02,   -9.807692e+01,   -5.000000e+00
    7706,   -2.083333e+02,   -9.230769e+01,   -5.000000e+00
    7707,   -2.261905e+02,   -9.807692e+01,   -5.000000e+00
    7708,   -2.202381e+02,   -9.230769e+01,   -5.000000e+00
    7709,   -2.380952e+02,   -9.807692e+01,   -5.000000e+00
    7710,   -2.321429e+02,   -9.230769e+01,   -5.000000e+00
    7711,   -2.440476e+02,   -9.230769e+01,   -5.000000e+00
    7712,   -1.190476e+01,   -8.653846e+01,   -5.000000e+00
    7713,   -5.952381e+00,   -8.076923e+01,   -5.000000e+00
    7714,   -2.380952e+01,   -8.653846e+01,   -5.000000e+00
    7715,   -1.785714e+01,   -8.076923e+01,   -5.000000e+00
    7716,   -3.571429e+01,   -8.653846e+01,   -5.000000e+00
    7717,   -2.976190e+01,   -8.076923e+01,   -5.000000e+00
    7718,   -4.761905e+01,   -8.653846e+01,   -5.000000e+00
    7719,   -4.166667e+01,   -8.076923e+01,   -5.000000e+00
    7720,   -5.952381e+01,   -8.653846e+01,   -5.000000e+00
    7721,   -5.357143e+01,   -8.076923e+01,   -5.000000e+00
    7722,   -7.142857e+01,   -8.653846e+01,   -5.000000e+00
    7723,   -6.547619e+01,   -8.076923e+01,   -5.000000e+00
    7724,   -8.333333e+01,   -8.653846e+01,   -5.000000e+00
    7725,   -7.738095e+01,   -8.076923e+01,   -5.000000e+00
    7726,   -9.523810e+01,   -8.653846e+01,   -5.000000e+00
    7727,   -8.928571e+01,   -8.076923e+01,   -5.000000e+00
    7728,   -1.071429e+02,   -8.653846e+01,   -5.000000e+00
    7729,   -1.011905e+02,   -8.076923e+01,   -5.000000e+00
    7730,   -1.190476e+02,   -8.653846e+01,   -5.000000e+00
    7731,   -1.130952e+02,   -8.076923e+01,   -5.000000e+00
    7732,   -1.309524e+02,   -8.653846e+01,   -5.000000e+00
    7733,   -1.250000e+02,   -8.076923e+01,   -5.000000e+00
    7734,   -1.428571e+02,   -8.653846e+01,   -5.000000e+00
    7735,   -1.369048e+02,   -8.076923e+01,   -5.000000e+00
    7736,   -1.547619e+02,   -8.653846e+01,   -5.000000e+00
    7737,   -1.488095e+02,   -8.076923e+01,   -5.000000e+00
    7738,   -1.666667e+02,   -8.653846e+01,   -5.000000e+00
    7739,   -1.607143e+02,   -8.076923e+01,   -5.000000e+00
    7740,   -1.785714e+02,   -8.653846e+01,   -5.000000e+00
    7741,   -1.726190e+02,   -8.076923e+01,   -5.000000e+00
    7742,   -1.904762e+02,   -8.653846e+01,   -5.000000e+00
    7743,   -1.845238e+02,   -8.076923e+01,   -5.000000e+00
    7744,   -2.023810e+02,   -8.653846e+01,   -5.000000e+00
    7745,   -1.964286e+02,   -8.076923e+01,   -5.000000e+00
    7746,   -2.142857e+02,   -8.653846e+01,   -5.000000e+00
    7747,   -2.083333e+02,   -8.076923e+01,   -5.000000e+00
    7748,   -2.261905e+02,   -8.653846e+01,   -5.000000e+00
    7749,   -2.202381e+02,   -8.076923e+01,   -5.000000e+00
    7750,   -2.380952e+02,   -8.653846e+01,   -5.000000e+00
    7751,   -2.321429e+02,   -8.076923e+01,   -5.000000e+00
    7752,   -2.440476e+02,   -8.076923e+01,   -5.000000e+00
    7753,   -1.190476e+01,   -7.500000e+01,   -5.000000e+00
    7754,   -5.952381e+00,   -6.923077e+01,   -5.000000e+00
    7755,   -2.380952e+01,   -7.500000e+01,   -5.000000e+00
    7756,   -1.785714e+01,   -6.923077e+01,   -5.000000e+00
    7757,   -3.571429e+01,   -7.500000e+01,   -5.000000e+00
    7758,   -2.976190e+01,   -6.923077e+01,   -5.000000e+00
    7759,   -4.761905e+01,   -7.500000e+01,   -5.000000e+00
    7760,   -4.166667e+01,   -6.923077e+01,   -5.000000e+00
    7761,   -5.952381e+01,   -7.500000e+01,   -5.000000e+00
    7762,   -5.357143e+01,   -6.923077e+01,   -5.000000e+00
    7763,   -7.142857e+01,   -7.500000e+01,   -5.000000e+00
    7764,   -6.547619e+01,   -6.923077e+01,   -5.000000e+00
    7765,   -8.333333e+01,   -7.500000e+01,   -5.000000e+00
    7766,   -7.738095e+01,   -6.923077e+01,   -5.000000e+00
    7767,   -9.523810e+01,   -7.500000e+01,   -5.000000e+00
    7768,   -8.928571e+01,   -6.923077e+01,   -5.000000e+00
    7769,   -1.071429e+02,   -7.500000e+01,   -5.000000e+00
    7770,   -1.011905e+02,   -6.923077e+01,   -5.000000e+00
    7771,   -1.190476e+02,   -7.500000e+01,   -5.000000e+00
    7772,   -1.130952e+02,   -6.923077e+01,   -5.000000e+00
    7773,   -1.309524e+02,   -7.500000e+01,   -5.000000e+00
    7774,   -1.250000e+02,   -6.923077e+01,   -5.000000e+00
    7775,   -1.428571e+02,   -7.500000e+01,   -5.000000e+00
    7776,   -1.369048e+02,   -6.923077e+01,   -5.000000e+00
    7777,   -1.547619e+02,   -7.500000e+01,   -5.000000e+00
    7778,   -1.488095e+02,   -6.923077e+01,   -5.000000e+00
    7779,   -1.666667e+02,   -7.500000e+01,   -5.000000e+00
    7780,   -1.607143e+02,   -6.923077e+01,   -5.000000e+00
    7781,   -1.785714e+02,   -7.500000e+01,   -5.000000e+00
    7782,   -1.726190e+02,   -6.923077e+01,   -5.000000e+00
    7783,   -1.904762e+02,   -7.500000e+01,   -5.000000e+00
    7784,   -1.845238e+02,   -6.923077e+01,   -5.000000e+00
    7785,   -2.023810e+02,   -7.500000e+01,   -5.000000e+00
    7786,   -1.964286e+02,   -6.923077e+01,   -5.000000e+00
    7787,   -2.142857e+02,   -7.500000e+01,   -5.000000e+00
    7788,   -2.083333e+02,   -6.923077e+01,   -5.000000e+00
    7789,   -2.261905e+02,   -7.500000e+01,   -5.000000e+00
    7790,   -2.202381e+02,   -6.923077e+01,   -5.000000e+00
    7791,   -2.380952e+02,   -7.500000e+01,   -5.000000e+00
    7792,   -2.321429e+02,   -6.923077e+01,   -5.000000e+00
    7793,   -2.440476e+02,   -6.923077e+01,   -5.000000e+00
    7794,   -1.190476e+01,   -6.346154e+01,   -5.000000e+00
    7795,   -5.952381e+00,   -5.769231e+01,   -5.000000e+00
    7796,   -2.380952e+01,   -6.346154e+01,   -5.000000e+00
    7797,   -1.785714e+01,   -5.769231e+01,   -5.000000e+00
    7798,   -3.571429e+01,   -6.346154e+01,   -5.000000e+00
    7799,   -2.976190e+01,   -5.769231e+01,   -5.000000e+00
    7800,   -4.761905e+01,   -6.346154e+01,   -5.000000e+00
    7801,   -4.166667e+01,   -5.769231e+01,   -5.000000e+00
    7802,   -5.952381e+01,   -6.346154e+01,   -5.000000e+00
    7803,   -5.357143e+01,   -5.769231e+01,   -5.000000e+00
    7804,   -7.142857e+01,   -6.346154e+01,   -5.000000e+00
    7805,   -6.547619e+01,   -5.769231e+01,   -5.000000e+00
    7806,   -8.333333e+01,   -6.346154e+01,   -5.000000e+00
    7807,   -7.738095e+01,   -5.769231e+01,   -5.000000e+00
    7808,   -9.523810e+01,   -6.346154e+01,   -5.000000e+00
    7809,   -8.928571e+01,   -5.769231e+01,   -5.000000e+00
    7810,   -1.071429e+02,   -6.346154e+01,   -5.000000e+00
    7811,   -1.011905e+02,   -5.769231e+01,   -5.000000e+00
    7812,   -1.190476e+02,   -6.346154e+01,   -5.000000e+00
    7813,   -1.130952e+02,   -5.769231e+01,   -5.000000e+00
    7814,   -1.309524e+02,   -6.346154e+01,   -5.000000e+00
    7815,   -1.250000e+02,   -5.769231e+01,   -5.000000e+00
    7816,   -1.428571e+02,   -6.346154e+01,   -5.000000e+00
    7817,   -1.369048e+02,   -5.769231e+01,   -5.000000e+00
    7818,   -1.547619e+02,   -6.346154e+01,   -5.000000e+00
    7819,   -1.488095e+02,   -5.769231e+01,   -5.000000e+00
    7820,   -1.666667e+02,   -6.346154e+01,   -5.000000e+00
    7821,   -1.607143e+02,   -5.769231e+01,   -5.000000e+00
    7822,   -1.785714e+02,   -6.346154e+01,   -5.000000e+00
    7823,   -1.726190e+02,   -5.769231e+01,   -5.000000e+00
    7824,   -1.904762e+02,   -6.346154e+01,   -5.000000e+00
    7825,   -1.845238e+02,   -5.769231e+01,   -5.000000e+00
    7826,   -2.023810e+02,   -6.346154e+01,   -5.000000e+00
    7827,   -1.964286e+02,   -5.769231e+01,   -5.000000e+00
    7828,   -2.142857e+02,   -6.346154e+01,   -5.000000e+00
    7829,   -2.083333e+02,   -5.769231e+01,   -5.000000e+00
    7830,   -2.261905e+02,   -6.346154e+01,   -5.000000e+00
    7831,   -2.202381e+02,   -5.769231e+01,   -5.000000e+00
    7832,   -2.380952e+02,   -6.346154e+01,   -5.000000e+00
    7833,   -2.321429e+02,   -5.769231e+01,   -5.000000e+00
    7834,   -2.440476e+02,   -5.769231e+01,   -5.000000e+00
    7835,   -1.190476e+01,   -5.192308e+01,   -5.000000e+00
    7836,   -5.952381e+00,   -4.615385e+01,   -5.000000e+00
    7837,   -2.380952e+01,   -5.192308e+01,   -5.000000e+00
    7838,   -1.785714e+01,   -4.615385e+01,   -5.000000e+00
    7839,   -3.571429e+01,   -5.192308e+01,   -5.000000e+00
    7840,   -2.976190e+01,   -4.615385e+01,   -5.000000e+00
    7841,   -4.761905e+01,   -5.192308e+01,   -5.000000e+00
    7842,   -4.166667e+01,   -4.615385e+01,   -5.000000e+00
    7843,   -5.952381e+01,   -5.192308e+01,   -5.000000e+00
    7844,   -5.357143e+01,   -4.615385e+01,   -5.000000e+00
    7845,   -7.142857e+01,   -5.192308e+01,   -5.000000e+00
    7846,   -6.547619e+01,   -4.615385e+01,   -5.000000e+00
    7847,   -8.333333e+01,   -5.192308e+01,   -5.000000e+00
    7848,   -7.738095e+01,   -4.615385e+01,   -5.000000e+00
    7849,   -9.523810e+01,   -5.192308e+01,   -5.000000e+00
    7850,   -8.928571e+01,   -4.615385e+01,   -5.000000e+00
    7851,   -1.071429e+02,   -5.192308e+01,   -5.000000e+00
    7852,   -1.011905e+02,   -4.615385e+01,   -5.000000e+00
    7853,   -1.190476e+02,   -5.192308e+01,   -5.000000e+00
    7854,   -1.130952e+02,   -4.615385e+01,   -5.000000e+00
    7855,   -1.309524e+02,   -5.192308e+01,   -5.000000e+00
    7856,   -1.250000e+02,   -4.615385e+01,   -5.000000e+00
    7857,   -1.428571e+02,   -5.192308e+01,   -5.000000e+00
    7858,   -1.369048e+02,   -4.615385e+01,   -5.000000e+00
    7859,   -1.547619e+02,   -5.192308e+01,   -5.000000e+00
    7860,   -1.488095e+02,   -4.615385e+01,   -5.000000e+00
    7861,   -1.666667e+02,   -5.192308e+01,   -5.000000e+00
    7862,   -1.607143e+02,   -4.615385e+01,   -5.000000e+00
    7863,   -1.785714e+02,   -5.192308e+01,   -5.000000e+00
    7864,   -1.726190e+02,   -4.615385e+01,   -5.000000e+00
    7865,   -1.904762e+02,   -5.192308e+01,   -5.000000e+00
    7866,   -1.845238e+02,   -4.615385e+01,   -5.000000e+00
    7867,   -2.023810e+02,   -5.192308e+01,   -5.000000e+00
    7868,   -1.964286e+02,   -4.615385e+01,   -5.000000e+00
    7869,   -2.142857e+02,   -5.192308e+01,   -5.000000e+00
    7870,   -2.083333e+02,   -4.615385e+01,   -5.000000e+00
    7871,   -2.261905e+02,   -5.192308e+01,   -5.000000e+00
    7872,   -2.202381e+02,   -4.615385e+01,   -5.000000e+00
    7873,   -2.380952e+02,   -5.192308e+01,   -5.000000e+00
    7874,   -2.321429e+02,   -4.615385e+01,   -5.000000e+00
    7875,   -2.440476e+02,   -4.615385e+01,   -5.000000e+00
    7876,   -1.190476e+01,   -4.038462e+01,   -5.000000e+00
    7877,   -5.952381e+00,   -3.461538e+01,   -5.000000e+00
    7878,   -2.380952e+01,   -4.038462e+01,   -5.000000e+00
    7879,   -1.785714e+01,   -3.461538e+01,   -5.000000e+00
    7880,   -3.571429e+01,   -4.038462e+01,   -5.000000e+00
    7881,   -2.976190e+01,   -3.461538e+01,   -5.000000e+00
    7882,   -4.761905e+01,   -4.038462e+01,   -5.000000e+00
    7883,   -4.166667e+01,   -3.461538e+01,   -5.000000e+00
    7884,   -5.952381e+01,   -4.038462e+01,   -5.000000e+00
    7885,   -5.357143e+01,   -3.461538e+01,   -5.000000e+00
    7886,   -7.142857e+01,   -4.038462e+01,   -5.000000e+00
    7887,   -6.547619e+01,   -3.461538e+01,   -5.000000e+00
    7888,   -8.333333e+01,   -4.038462e+01,   -5.000000e+00
    7889,   -7.738095e+01,   -3.461538e+01,   -5.000000e+00
    7890,   -9.523810e+01,   -4.038462e+01,   -5.000000e+00
    7891,   -8.928571e+01,   -3.461538e+01,   -5.000000e+00
    7892,   -1.071429e+02,   -4.038462e+01,   -5.000000e+00
    7893,   -1.011905e+02,   -3.461538e+01,   -5.000000e+00
    7894,   -1.190476e+02,   -4.038462e+01,   -5.000000e+00
    7895,   -1.130952e+02,   -3.461538e+01,   -5.000000e+00
    7896,   -1.309524e+02,   -4.038462e+01,   -5.000000e+00
    7897,   -1.250000e+02,   -3.461538e+01,   -5.000000e+00
    7898,   -1.428571e+02,   -4.038462e+01,   -5.000000e+00
    7899,   -1.369048e+02,   -3.461538e+01,   -5.000000e+00
    7900,   -1.547619e+02,   -4.038462e+01,   -5.000000e+00
    7901,   -1.488095e+02,   -3.461538e+01,   -5.000000e+00
    7902,   -1.666667e+02,   -4.038462e+01,   -5.000000e+00
    7903,   -1.607143e+02,   -3.461538e+01,   -5.000000e+00
    7904,   -1.785714e+02,   -4.038462e+01,   -5.000000e+00
    7905,   -1.726190e+02,   -3.461538e+01,   -5.000000e+00
    7906,   -1.904762e+02,   -4.038462e+01,   -5.000000e+00
    7907,   -1.845238e+02,   -3.461538e+01,   -5.000000e+00
    7908,   -2.023810e+02,   -4.038462e+01,   -5.000000e+00
    7909,   -1.964286e+02,   -3.461538e+01,   -5.000000e+00
    7910,   -2.142857e+02,   -4.038462e+01,   -5.000000e+00
    7911,   -2.083333e+02,   -3.461538e+01,   -5.000000e+00
    7912,   -2.261905e+02,   -4.038462e+01,   -5.000000e+00
    7913,   -2.202381e+02,   -3.461538e+01,   -5.000000e+00
    7914,   -2.380952e+02,   -4.038462e+01,   -5.000000e+00
    7915,   -2.321429e+02,   -3.461538e+01,   -5.000000e+00
    7916,   -2.440476e+02,   -3.461538e+01,   -5.000000e+00
    7917,   -1.190476e+01,   -2.884615e+01,   -5.000000e+00
    7918,   -5.952381e+00,   -2.307692e+01,   -5.000000e+00
    7919,   -2.380952e+01,   -2.884615e+01,   -5.000000e+00
    7920,   -1.785714e+01,   -2.307692e+01,   -5.000000e+00
    7921,   -3.571429e+01,   -2.884615e+01,   -5.000000e+00
    7922,   -2.976190e+01,   -2.307692e+01,   -5.000000e+00
    7923,   -4.761905e+01,   -2.884615e+01,   -5.000000e+00
    7924,   -4.166667e+01,   -2.307692e+01,   -5.000000e+00
    7925,   -5.952381e+01,   -2.884615e+01,   -5.000000e+00
    7926,   -5.357143e+01,   -2.307692e+01,   -5.000000e+00
    7927,   -7.142857e+01,   -2.884615e+01,   -5.000000e+00
    7928,   -6.547619e+01,   -2.307692e+01,   -5.000000e+00
    7929,   -8.333333e+01,   -2.884615e+01,   -5.000000e+00
    7930,   -7.738095e+01,   -2.307692e+01,   -5.000000e+00
    7931,   -9.523810e+01,   -2.884615e+01,   -5.000000e+00
    7932,   -8.928571e+01,   -2.307692e+01,   -5.000000e+00
    7933,   -1.071429e+02,   -2.884615e+01,   -5.000000e+00
    7934,   -1.011905e+02,   -2.307692e+01,   -5.000000e+00
    7935,   -1.190476e+02,   -2.884615e+01,   -5.000000e+00
    7936,   -1.130952e+02,   -2.307692e+01,   -5.000000e+00
    7937,   -1.309524e+02,   -2.884615e+01,   -5.000000e+00
    7938,   -1.250000e+02,   -2.307692e+01,   -5.000000e+00
    7939,   -1.428571e+02,   -2.884615e+01,   -5.000000e+00
    7940,   -1.369048e+02,   -2.307692e+01,   -5.000000e+00
    7941,   -1.547619e+02,   -2.884615e+01,   -5.000000e+00
    7942,   -1.488095e+02,   -2.307692e+01,   -5.000000e+00
    7943,   -1.666667e+02,   -2.884615e+01,   -5.000000e+00
    7944,   -1.607143e+02,   -2.307692e+01,   -5.000000e+00
    7945,   -1.785714e+02,   -2.884615e+01,   -5.000000e+00
    7946,   -1.726190e+02,   -2.307692e+01,   -5.000000e+00
    7947,   -1.904762e+02,   -2.884615e+01,   -5.000000e+00
    7948,   -1.845238e+02,   -2.307692e+01,   -5.000000e+00
    7949,   -2.023810e+02,   -2.884615e+01,   -5.000000e+00
    7950,   -1.964286e+02,   -2.307692e+01,   -5.000000e+00
    7951,   -2.142857e+02,   -2.884615e+01,   -5.000000e+00
    7952,   -2.083333e+02,   -2.307692e+01,   -5.000000e+00
    7953,   -2.261905e+02,   -2.884615e+01,   -5.000000e+00
    7954,   -2.202381e+02,   -2.307692e+01,   -5.000000e+00
    7955,   -2.380952e+02,   -2.884615e+01,   -5.000000e+00
    7956,   -2.321429e+02,   -2.307692e+01,   -5.000000e+00
    7957,   -2.440476e+02,   -2.307692e+01,   -5.000000e+00
    7958,   -1.190476e+01,   -1.730769e+01,   -5.000000e+00
    7959,   -5.952381e+00,   -1.153846e+01,   -5.000000e+00
    7960,   -2.380952e+01,   -1.730769e+01,   -5.000000e+00
    7961,   -1.785714e+01,   -1.153846e+01,   -5.000000e+00
    7962,   -3.571429e+01,   -1.730769e+01,   -5.000000e+00
    7963,   -2.976190e+01,   -1.153846e+01,   -5.000000e+00
    7964,   -4.761905e+01,   -1.730769e+01,   -5.000000e+00
    7965,   -4.166667e+01,   -1.153846e+01,   -5.000000e+00
    7966,   -5.952381e+01,   -1.730769e+01,   -5.000000e+00
    7967,   -5.357143e+01,   -1.153846e+01,   -5.000000e+00
    7968,   -7.142857e+01,   -1.730769e+01,   -5.000000e+00
    7969,   -6.547619e+01,   -1.153846e+01,   -5.000000e+00
    7970,   -8.333333e+01,   -1.730769e+01,   -5.000000e+00
    7971,   -7.738095e+01,   -1.153846e+01,   -5.000000e+00
    7972,   -9.523810e+01,   -1.730769e+01,   -5.000000e+00
    7973,   -8.928571e+01,   -1.153846e+01,   -5.000000e+00
    7974,   -1.071429e+02,   -1.730769e+01,   -5.000000e+00
    7975,   -1.011905e+02,   -1.153846e+01,   -5.000000e+00
    7976,   -1.190476e+02,   -1.730769e+01,   -5.000000e+00
    7977,   -1.130952e+02,   -1.153846e+01,   -5.000000e+00
    7978,   -1.309524e+02,   -1.730769e+01,   -5.000000e+00
    7979,   -1.250000e+02,   -1.153846e+01,   -5.000000e+00
    7980,   -1.428571e+02,   -1.730769e+01,   -5.000000e+00
    7981,   -1.369048e+02,   -1.153846e+01,   -5.000000e+00
    7982,   -1.547619e+02,   -1.730769e+01,   -5.000000e+00
    7983,   -1.488095e+02,   -1.153846e+01,   -5.000000e+00
    7984,   -1.666667e+02,   -1.730769e+01,   -5.000000e+00
    7985,   -1.607143e+02,   -1.153846e+01,   -5.000000e+00
    7986,   -1.785714e+02,   -1.730769e+01,   -5.000000e+00
    7987,   -1.726190e+02,   -1.153846e+01,   -5.000000e+00
    7988,   -1.904762e+02,   -1.730769e+01,   -5.000000e+00
    7989,   -1.845238e+02,   -1.153846e+01,   -5.000000e+00
    7990,   -2.023810e+02,   -1.730769e+01,   -5.000000e+00
    7991,   -1.964286e+02,   -1.153846e+01,   -5.000000e+00
    7992,   -2.142857e+02,   -1.730769e+01,   -5.000000e+00
    7993,   -2.083333e+02,   -1.153846e+01,   -5.000000e+00
    7994,   -2.261905e+02,   -1.730769e+01,   -5.000000e+00
    7995,   -2.202381e+02,   -1.153846e+01,   -5.000000e+00
    7996,   -2.380952e+02,   -1.730769e+01,   -5.000000e+00
    7997,   -2.321429e+02,   -1.153846e+01,   -5.000000e+00
    7998,   -2.440476e+02,   -1.153846e+01,   -5.000000e+00
    7999,   -1.190476e+01,   -5.769231e+00,   -5.000000e+00
    8000,   -2.380952e+01,   -5.769231e+00,   -5.000000e+00
    8001,   -3.571429e+01,   -5.769231e+00,   -5.000000e+00
    8002,   -4.761905e+01,   -5.769231e+00,   -5.000000e+00
    8003,   -5.952381e+01,   -5.769231e+00,   -5.000000e+00
    8004,   -7.142857e+01,   -5.769231e+00,   -5.000000e+00
    8005,   -8.333333e+01,   -5.769231e+00,   -5.000000e+00
    8006,   -9.523810e+01,   -5.769231e+00,   -5.000000e+00
    8007,   -1.071429e+02,   -5.769231e+00,   -5.000000e+00
    8008,   -1.190476e+02,   -5.769231e+00,   -5.000000e+00
    8009,   -1.309524e+02,   -5.769231e+00,   -5.000000e+00
    8010,   -1.428571e+02,   -5.769231e+00,   -5.000000e+00
    8011,   -1.547619e+02,   -5.769231e+00,   -5.000000e+00
    8012,   -1.666667e+02,   -5.769231e+00,   -5.000000e+00
    8013,   -1.785714e+02,   -5.769231e+00,   -5.000000e+00
    8014,   -1.904762e+02,   -5.769231e+00,   -5.000000e+00
    8015,   -2.023810e+02,   -5.769231e+00,   -5.000000e+00
    8016,   -2.142857e+02,   -5.769231e+00,   -5.000000e+00
    8017,   -2.261905e+02,   -5.769231e+00,   -5.000000e+00
    8018,   -2.380952e+02,   -5.769231e+00,   -5.000000e+00
    8019,   -2.500000e+02,   -5.769231e+00,    5.000000e+00
    8020,   -2.500000e+02,   -1.730769e+01,    5.000000e+00
    8021,   -2.500000e+02,   -2.884615e+01,    5.000000e+00
    8022,   -2.500000e+02,   -4.038462e+01,    5.000000e+00
    8023,   -2.500000e+02,   -5.192308e+01,    5.000000e+00
    8024,   -2.500000e+02,   -6.346154e+01,    5.000000e+00
    8025,   -2.500000e+02,   -7.500000e+01,    5.000000e+00
    8026,   -2.500000e+02,   -8.653846e+01,    5.000000e+00
    8027,   -2.500000e+02,   -9.807692e+01,    5.000000e+00
    8028,   -2.500000e+02,   -1.096154e+02,    5.000000e+00
    8029,   -2.500000e+02,   -1.211538e+02,    5.000000e+00
    8030,   -2.500000e+02,   -1.326923e+02,    5.000000e+00
    8031,   -2.500000e+02,   -1.442308e+02,    5.000000e+00
    8032,   -2.500000e+02,   -1.384615e+02,    0.000000e+00
    8033,   -2.500000e+02,   -1.269231e+02,    0.000000e+00
    8034,   -2.500000e+02,   -1.153846e+02,    0.000000e+00
    8035,   -2.500000e+02,   -1.038462e+02,    0.000000e+00
    8036,   -2.500000e+02,   -9.230769e+01,    0.000000e+00
    8037,   -2.500000e+02,   -8.076923e+01,    0.000000e+00
    8038,   -2.500000e+02,   -6.923077e+01,    0.000000e+00
    8039,   -2.500000e+02,   -5.769231e+01,    0.000000e+00
    8040,   -2.500000e+02,   -4.615385e+01,    0.000000e+00
    8041,   -2.500000e+02,   -3.461538e+01,    0.000000e+00
    8042,   -2.500000e+02,   -2.307692e+01,    0.000000e+00
    8043,   -2.500000e+02,   -1.153846e+01,    0.000000e+00
    8044,    0.000000e+00,   -5.769231e+00,    5.000000e+00
    8045,    0.000000e+00,   -1.730769e+01,    5.000000e+00
    8046,    0.000000e+00,   -2.884615e+01,    5.000000e+00
    8047,    0.000000e+00,   -4.038462e+01,    5.000000e+00
    8048,    0.000000e+00,   -5.192308e+01,    5.000000e+00
    8049,    0.000000e+00,   -6.346154e+01,    5.000000e+00
    8050,    0.000000e+00,   -7.500000e+01,    5.000000e+00
    8051,    0.000000e+00,   -8.653846e+01,    5.000000e+00
    8052,    0.000000e+00,   -9.807692e+01,    5.000000e+00
    8053,    0.000000e+00,   -1.096154e+02,    5.000000e+00
    8054,    0.000000e+00,   -1.211538e+02,    5.000000e+00
    8055,    0.000000e+00,   -1.326923e+02,    5.000000e+00
    8056,    0.000000e+00,   -1.442308e+02,    5.000000e+00
    8057,    0.000000e+00,   -1.384615e+02,    0.000000e+00
    8058,    0.000000e+00,   -1.269231e+02,    0.000000e+00
    8059,    0.000000e+00,   -1.153846e+02,    0.000000e+00
    8060,    0.000000e+00,   -1.038462e+02,    0.000000e+00
    8061,    0.000000e+00,   -9.230769e+01,    0.000000e+00
    8062,    0.000000e+00,   -8.076923e+01,    0.000000e+00
    8063,    0.000000e+00,   -6.923077e+01,    0.000000e+00
    8064,    0.000000e+00,   -5.769231e+01,    0.000000e+00
    8065,    0.000000e+00,   -4.615385e+01,    0.000000e+00
    8066,    0.000000e+00,   -3.461538e+01,    0.000000e+00
    8067,    0.000000e+00,   -2.307692e+01,    0.000000e+00
    8068,    0.000000e+00,   -1.153846e+01,    0.000000e+00
    8069,   -2.440476e+02,   -1.153846e+01,    5.000000e+00
    8070,   -2.380952e+02,   -5.769231e+00,    5.000000e+00
    8071,   -2.321429e+02,   -1.153846e+01,    5.000000e+00
    8072,   -2.261905e+02,   -5.769231e+00,    5.000000e+00
    8073,   -2.202381e+02,   -1.153846e+01,    5.000000e+00
    8074,   -2.142857e+02,   -5.769231e+00,    5.000000e+00
    8075,   -2.083333e+02,   -1.153846e+01,    5.000000e+00
    8076,   -2.023810e+02,   -5.769231e+00,    5.000000e+00
    8077,   -1.964286e+02,   -1.153846e+01,    5.000000e+00
    8078,   -1.904762e+02,   -5.769231e+00,    5.000000e+00
    8079,   -1.845238e+02,   -1.153846e+01,    5.000000e+00
    8080,   -1.785714e+02,   -5.769231e+00,    5.000000e+00
    8081,   -1.726190e+02,   -1.153846e+01,    5.000000e+00
    8082,   -1.666667e+02,   -5.769231e+00,    5.000000e+00
    8083,   -1.607143e+02,   -1.153846e+01,    5.000000e+00
    8084,   -1.547619e+02,   -5.769231e+00,    5.000000e+00
    8085,   -1.488095e+02,   -1.153846e+01,    5.000000e+00
    8086,   -1.428571e+02,   -5.769231e+00,    5.000000e+00
    8087,   -1.369048e+02,   -1.153846e+01,    5.000000e+00
    8088,   -1.309524e+02,   -5.769231e+00,    5.000000e+00
    8089,   -1.250000e+02,   -1.153846e+01,    5.000000e+00
    8090,   -1.190476e+02,   -5.769231e+00,    5.000000e+00
    8091,   -1.130952e+02,   -1.153846e+01,    5.000000e+00
    8092,   -1.071429e+02,   -5.769231e+00,    5.000000e+00
    8093,   -1.011905e+02,   -1.153846e+01,    5.000000e+00
    8094,   -9.523810e+01,   -5.769231e+00,    5.000000e+00
    8095,   -8.928571e+01,   -1.153846e+01,    5.000000e+00
    8096,   -8.333333e+01,   -5.769231e+00,    5.000000e+00
    8097,   -7.738095e+01,   -1.153846e+01,    5.000000e+00
    8098,   -7.142857e+01,   -5.769231e+00,    5.000000e+00
    8099,   -6.547619e+01,   -1.153846e+01,    5.000000e+00
    8100,   -5.952381e+01,   -5.769231e+00,    5.000000e+00
    8101,   -5.357143e+01,   -1.153846e+01,    5.000000e+00
    8102,   -4.761905e+01,   -5.769231e+00,    5.000000e+00
    8103,   -4.166667e+01,   -1.153846e+01,    5.000000e+00
    8104,   -3.571429e+01,   -5.769231e+00,    5.000000e+00
    8105,   -2.976190e+01,   -1.153846e+01,    5.000000e+00
    8106,   -2.380952e+01,   -5.769231e+00,    5.000000e+00
    8107,   -1.785714e+01,   -1.153846e+01,    5.000000e+00
    8108,   -1.190476e+01,   -5.769231e+00,    5.000000e+00
    8109,   -5.952381e+00,   -1.153846e+01,    5.000000e+00
    8110,   -2.440476e+02,   -2.307692e+01,    5.000000e+00
    8111,   -2.380952e+02,   -1.730769e+01,    5.000000e+00
    8112,   -2.321429e+02,   -2.307692e+01,    5.000000e+00
    8113,   -2.261905e+02,   -1.730769e+01,    5.000000e+00
    8114,   -2.202381e+02,   -2.307692e+01,    5.000000e+00
    8115,   -2.142857e+02,   -1.730769e+01,    5.000000e+00
    8116,   -2.083333e+02,   -2.307692e+01,    5.000000e+00
    8117,   -2.023810e+02,   -1.730769e+01,    5.000000e+00
    8118,   -1.964286e+02,   -2.307692e+01,    5.000000e+00
    8119,   -1.904762e+02,   -1.730769e+01,    5.000000e+00
    8120,   -1.845238e+02,   -2.307692e+01,    5.000000e+00
    8121,   -1.785714e+02,   -1.730769e+01,    5.000000e+00
    8122,   -1.726190e+02,   -2.307692e+01,    5.000000e+00
    8123,   -1.666667e+02,   -1.730769e+01,    5.000000e+00
    8124,   -1.607143e+02,   -2.307692e+01,    5.000000e+00
    8125,   -1.547619e+02,   -1.730769e+01,    5.000000e+00
    8126,   -1.488095e+02,   -2.307692e+01,    5.000000e+00
    8127,   -1.428571e+02,   -1.730769e+01,    5.000000e+00
    8128,   -1.369048e+02,   -2.307692e+01,    5.000000e+00
    8129,   -1.309524e+02,   -1.730769e+01,    5.000000e+00
    8130,   -1.250000e+02,   -2.307692e+01,    5.000000e+00
    8131,   -1.190476e+02,   -1.730769e+01,    5.000000e+00
    8132,   -1.130952e+02,   -2.307692e+01,    5.000000e+00
    8133,   -1.071429e+02,   -1.730769e+01,    5.000000e+00
    8134,   -1.011905e+02,   -2.307692e+01,    5.000000e+00
    8135,   -9.523810e+01,   -1.730769e+01,    5.000000e+00
    8136,   -8.928571e+01,   -2.307692e+01,    5.000000e+00
    8137,   -8.333333e+01,   -1.730769e+01,    5.000000e+00
    8138,   -7.738095e+01,   -2.307692e+01,    5.000000e+00
    8139,   -7.142857e+01,   -1.730769e+01,    5.000000e+00
    8140,   -6.547619e+01,   -2.307692e+01,    5.000000e+00
    8141,   -5.952381e+01,   -1.730769e+01,    5.000000e+00
    8142,   -5.357143e+01,   -2.307692e+01,    5.000000e+00
    8143,   -4.761905e+01,   -1.730769e+01,    5.000000e+00
    8144,   -4.166667e+01,   -2.307692e+01,    5.000000e+00
    8145,   -3.571429e+01,   -1.730769e+01,    5.000000e+00
    8146,   -2.976190e+01,   -2.307692e+01,    5.000000e+00
    8147,   -2.380952e+01,   -1.730769e+01,    5.000000e+00
    8148,   -1.785714e+01,   -2.307692e+01,    5.000000e+00
    8149,   -1.190476e+01,   -1.730769e+01,    5.000000e+00
    8150,   -5.952381e+00,   -2.307692e+01,    5.000000e+00
    8151,   -2.440476e+02,   -3.461538e+01,    5.000000e+00
    8152,   -2.380952e+02,   -2.884615e+01,    5.000000e+00
    8153,   -2.321429e+02,   -3.461538e+01,    5.000000e+00
    8154,   -2.261905e+02,   -2.884615e+01,    5.000000e+00
    8155,   -2.202381e+02,   -3.461538e+01,    5.000000e+00
    8156,   -2.142857e+02,   -2.884615e+01,    5.000000e+00
    8157,   -2.083333e+02,   -3.461538e+01,    5.000000e+00
    8158,   -2.023810e+02,   -2.884615e+01,    5.000000e+00
    8159,   -1.964286e+02,   -3.461538e+01,    5.000000e+00
    8160,   -1.904762e+02,   -2.884615e+01,    5.000000e+00
    8161,   -1.845238e+02,   -3.461538e+01,    5.000000e+00
    8162,   -1.785714e+02,   -2.884615e+01,    5.000000e+00
    8163,   -1.726190e+02,   -3.461538e+01,    5.000000e+00
    8164,   -1.666667e+02,   -2.884615e+01,    5.000000e+00
    8165,   -1.607143e+02,   -3.461538e+01,    5.000000e+00
    8166,   -1.547619e+02,   -2.884615e+01,    5.000000e+00
    8167,   -1.488095e+02,   -3.461538e+01,    5.000000e+00
    8168,   -1.428571e+02,   -2.884615e+01,    5.000000e+00
    8169,   -1.369048e+02,   -3.461538e+01,    5.000000e+00
    8170,   -1.309524e+02,   -2.884615e+01,    5.000000e+00
    8171,   -1.250000e+02,   -3.461538e+01,    5.000000e+00
    8172,   -1.190476e+02,   -2.884615e+01,    5.000000e+00
    8173,   -1.130952e+02,   -3.461538e+01,    5.000000e+00
    8174,   -1.071429e+02,   -2.884615e+01,    5.000000e+00
    8175,   -1.011905e+02,   -3.461538e+01,    5.000000e+00
    8176,   -9.523810e+01,   -2.884615e+01,    5.000000e+00
    8177,   -8.928571e+01,   -3.461538e+01,    5.000000e+00
    8178,   -8.333333e+01,   -2.884615e+01,    5.000000e+00
    8179,   -7.738095e+01,   -3.461538e+01,    5.000000e+00
    8180,   -7.142857e+01,   -2.884615e+01,    5.000000e+00
    8181,   -6.547619e+01,   -3.461538e+01,    5.000000e+00
    8182,   -5.952381e+01,   -2.884615e+01,    5.000000e+00
    8183,   -5.357143e+01,   -3.461538e+01,    5.000000e+00
    8184,   -4.761905e+01,   -2.884615e+01,    5.000000e+00
    8185,   -4.166667e+01,   -3.461538e+01,    5.000000e+00
    8186,   -3.571429e+01,   -2.884615e+01,    5.000000e+00
    8187,   -2.976190e+01,   -3.461538e+01,    5.000000e+00
    8188,   -2.380952e+01,   -2.884615e+01,    5.000000e+00
    8189,   -1.785714e+01,   -3.461538e+01,    5.000000e+00
    8190,   -1.190476e+01,   -2.884615e+01,    5.000000e+00
    8191,   -5.952381e+00,   -3.461538e+01,    5.000000e+00
    8192,   -2.440476e+02,   -4.615385e+01,    5.000000e+00
    8193,   -2.380952e+02,   -4.038462e+01,    5.000000e+00
    8194,   -2.321429e+02,   -4.615385e+01,    5.000000e+00
    8195,   -2.261905e+02,   -4.038462e+01,    5.000000e+00
    8196,   -2.202381e+02,   -4.615385e+01,    5.000000e+00
    8197,   -2.142857e+02,   -4.038462e+01,    5.000000e+00
    8198,   -2.083333e+02,   -4.615385e+01,    5.000000e+00
    8199,   -2.023810e+02,   -4.038462e+01,    5.000000e+00
    8200,   -1.964286e+02,   -4.615385e+01,    5.000000e+00
    8201,   -1.904762e+02,   -4.038462e+01,    5.000000e+00
    8202,   -1.845238e+02,   -4.615385e+01,    5.000000e+00
    8203,   -1.785714e+02,   -4.038462e+01,    5.000000e+00
    8204,   -1.726190e+02,   -4.615385e+01,    5.000000e+00
    8205,   -1.666667e+02,   -4.038462e+01,    5.000000e+00
    8206,   -1.607143e+02,   -4.615385e+01,    5.000000e+00
    8207,   -1.547619e+02,   -4.038462e+01,    5.000000e+00
    8208,   -1.488095e+02,   -4.615385e+01,    5.000000e+00
    8209,   -1.428571e+02,   -4.038462e+01,    5.000000e+00
    8210,   -1.369048e+02,   -4.615385e+01,    5.000000e+00
    8211,   -1.309524e+02,   -4.038462e+01,    5.000000e+00
    8212,   -1.250000e+02,   -4.615385e+01,    5.000000e+00
    8213,   -1.190476e+02,   -4.038462e+01,    5.000000e+00
    8214,   -1.130952e+02,   -4.615385e+01,    5.000000e+00
    8215,   -1.071429e+02,   -4.038462e+01,    5.000000e+00
    8216,   -1.011905e+02,   -4.615385e+01,    5.000000e+00
    8217,   -9.523810e+01,   -4.038462e+01,    5.000000e+00
    8218,   -8.928571e+01,   -4.615385e+01,    5.000000e+00
    8219,   -8.333333e+01,   -4.038462e+01,    5.000000e+00
    8220,   -7.738095e+01,   -4.615385e+01,    5.000000e+00
    8221,   -7.142857e+01,   -4.038462e+01,    5.000000e+00
    8222,   -6.547619e+01,   -4.615385e+01,    5.000000e+00
    8223,   -5.952381e+01,   -4.038462e+01,    5.000000e+00
    8224,   -5.357143e+01,   -4.615385e+01,    5.000000e+00
    8225,   -4.761905e+01,   -4.038462e+01,    5.000000e+00
    8226,   -4.166667e+01,   -4.615385e+01,    5.000000e+00
    8227,   -3.571429e+01,   -4.038462e+01,    5.000000e+00
    8228,   -2.976190e+01,   -4.615385e+01,    5.000000e+00
    8229,   -2.380952e+01,   -4.038462e+01,    5.000000e+00
    8230,   -1.785714e+01,   -4.615385e+01,    5.000000e+00
    8231,   -1.190476e+01,   -4.038462e+01,    5.000000e+00
    8232,   -5.952381e+00,   -4.615385e+01,    5.000000e+00
    8233,   -2.440476e+02,   -5.769231e+01,    5.000000e+00
    8234,   -2.380952e+02,   -5.192308e+01,    5.000000e+00
    8235,   -2.321429e+02,   -5.769231e+01,    5.000000e+00
    8236,   -2.261905e+02,   -5.192308e+01,    5.000000e+00
    8237,   -2.202381e+02,   -5.769231e+01,    5.000000e+00
    8238,   -2.142857e+02,   -5.192308e+01,    5.000000e+00
    8239,   -2.083333e+02,   -5.769231e+01,    5.000000e+00
    8240,   -2.023810e+02,   -5.192308e+01,    5.000000e+00
    8241,   -1.964286e+02,   -5.769231e+01,    5.000000e+00
    8242,   -1.904762e+02,   -5.192308e+01,    5.000000e+00
    8243,   -1.845238e+02,   -5.769231e+01,    5.000000e+00
    8244,   -1.785714e+02,   -5.192308e+01,    5.000000e+00
    8245,   -1.726190e+02,   -5.769231e+01,    5.000000e+00
    8246,   -1.666667e+02,   -5.192308e+01,    5.000000e+00
    8247,   -1.607143e+02,   -5.769231e+01,    5.000000e+00
    8248,   -1.547619e+02,   -5.192308e+01,    5.000000e+00
    8249,   -1.488095e+02,   -5.769231e+01,    5.000000e+00
    8250,   -1.428571e+02,   -5.192308e+01,    5.000000e+00
    8251,   -1.369048e+02,   -5.769231e+01,    5.000000e+00
    8252,   -1.309524e+02,   -5.192308e+01,    5.000000e+00
    8253,   -1.250000e+02,   -5.769231e+01,    5.000000e+00
    8254,   -1.190476e+02,   -5.192308e+01,    5.000000e+00
    8255,   -1.130952e+02,   -5.769231e+01,    5.000000e+00
    8256,   -1.071429e+02,   -5.192308e+01,    5.000000e+00
    8257,   -1.011905e+02,   -5.769231e+01,    5.000000e+00
    8258,   -9.523810e+01,   -5.192308e+01,    5.000000e+00
    8259,   -8.928571e+01,   -5.769231e+01,    5.000000e+00
    8260,   -8.333333e+01,   -5.192308e+01,    5.000000e+00
    8261,   -7.738095e+01,   -5.769231e+01,    5.000000e+00
    8262,   -7.142857e+01,   -5.192308e+01,    5.000000e+00
    8263,   -6.547619e+01,   -5.769231e+01,    5.000000e+00
    8264,   -5.952381e+01,   -5.192308e+01,    5.000000e+00
    8265,   -5.357143e+01,   -5.769231e+01,    5.000000e+00
    8266,   -4.761905e+01,   -5.192308e+01,    5.000000e+00
    8267,   -4.166667e+01,   -5.769231e+01,    5.000000e+00
    8268,   -3.571429e+01,   -5.192308e+01,    5.000000e+00
    8269,   -2.976190e+01,   -5.769231e+01,    5.000000e+00
    8270,   -2.380952e+01,   -5.192308e+01,    5.000000e+00
    8271,   -1.785714e+01,   -5.769231e+01,    5.000000e+00
    8272,   -1.190476e+01,   -5.192308e+01,    5.000000e+00
    8273,   -5.952381e+00,   -5.769231e+01,    5.000000e+00
    8274,   -2.440476e+02,   -6.923077e+01,    5.000000e+00
    8275,   -2.380952e+02,   -6.346154e+01,    5.000000e+00
    8276,   -2.321429e+02,   -6.923077e+01,    5.000000e+00
    8277,   -2.261905e+02,   -6.346154e+01,    5.000000e+00
    8278,   -2.202381e+02,   -6.923077e+01,    5.000000e+00
    8279,   -2.142857e+02,   -6.346154e+01,    5.000000e+00
    8280,   -2.083333e+02,   -6.923077e+01,    5.000000e+00
    8281,   -2.023810e+02,   -6.346154e+01,    5.000000e+00
    8282,   -1.964286e+02,   -6.923077e+01,    5.000000e+00
    8283,   -1.904762e+02,   -6.346154e+01,    5.000000e+00
    8284,   -1.845238e+02,   -6.923077e+01,    5.000000e+00
    8285,   -1.785714e+02,   -6.346154e+01,    5.000000e+00
    8286,   -1.726190e+02,   -6.923077e+01,    5.000000e+00
    8287,   -1.666667e+02,   -6.346154e+01,    5.000000e+00
    8288,   -1.607143e+02,   -6.923077e+01,    5.000000e+00
    8289,   -1.547619e+02,   -6.346154e+01,    5.000000e+00
    8290,   -1.488095e+02,   -6.923077e+01,    5.000000e+00
    8291,   -1.428571e+02,   -6.346154e+01,    5.000000e+00
    8292,   -1.369048e+02,   -6.923077e+01,    5.000000e+00
    8293,   -1.309524e+02,   -6.346154e+01,    5.000000e+00
    8294,   -1.250000e+02,   -6.923077e+01,    5.000000e+00
    8295,   -1.190476e+02,   -6.346154e+01,    5.000000e+00
    8296,   -1.130952e+02,   -6.923077e+01,    5.000000e+00
    8297,   -1.071429e+02,   -6.346154e+01,    5.000000e+00
    8298,   -1.011905e+02,   -6.923077e+01,    5.000000e+00
    8299,   -9.523810e+01,   -6.346154e+01,    5.000000e+00
    8300,   -8.928571e+01,   -6.923077e+01,    5.000000e+00
    8301,   -8.333333e+01,   -6.346154e+01,    5.000000e+00
    8302,   -7.738095e+01,   -6.923077e+01,    5.000000e+00
    8303,   -7.142857e+01,   -6.346154e+01,    5.000000e+00
    8304,   -6.547619e+01,   -6.923077e+01,    5.000000e+00
    8305,   -5.952381e+01,   -6.346154e+01,    5.000000e+00
    8306,   -5.357143e+01,   -6.923077e+01,    5.000000e+00
    8307,   -4.761905e+01,   -6.346154e+01,    5.000000e+00
    8308,   -4.166667e+01,   -6.923077e+01,    5.000000e+00
    8309,   -3.571429e+01,   -6.346154e+01,    5.000000e+00
    8310,   -2.976190e+01,   -6.923077e+01,    5.000000e+00
    8311,   -2.380952e+01,   -6.346154e+01,    5.000000e+00
    8312,   -1.785714e+01,   -6.923077e+01,    5.000000e+00
    8313,   -1.190476e+01,   -6.346154e+01,    5.000000e+00
    8314,   -5.952381e+00,   -6.923077e+01,    5.000000e+00
    8315,   -2.440476e+02,   -8.076923e+01,    5.000000e+00
    8316,   -2.380952e+02,   -7.500000e+01,    5.000000e+00
    8317,   -2.321429e+02,   -8.076923e+01,    5.000000e+00
    8318,   -2.261905e+02,   -7.500000e+01,    5.000000e+00
    8319,   -2.202381e+02,   -8.076923e+01,    5.000000e+00
    8320,   -2.142857e+02,   -7.500000e+01,    5.000000e+00
    8321,   -2.083333e+02,   -8.076923e+01,    5.000000e+00
    8322,   -2.023810e+02,   -7.500000e+01,    5.000000e+00
    8323,   -1.964286e+02,   -8.076923e+01,    5.000000e+00
    8324,   -1.904762e+02,   -7.500000e+01,    5.000000e+00
    8325,   -1.845238e+02,   -8.076923e+01,    5.000000e+00
    8326,   -1.785714e+02,   -7.500000e+01,    5.000000e+00
    8327,   -1.726190e+02,   -8.076923e+01,    5.000000e+00
    8328,   -1.666667e+02,   -7.500000e+01,    5.000000e+00
    8329,   -1.607143e+02,   -8.076923e+01,    5.000000e+00
    8330,   -1.547619e+02,   -7.500000e+01,    5.000000e+00
    8331,   -1.488095e+02,   -8.076923e+01,    5.000000e+00
    8332,   -1.428571e+02,   -7.500000e+01,    5.000000e+00
    8333,   -1.369048e+02,   -8.076923e+01,    5.000000e+00
    8334,   -1.309524e+02,   -7.500000e+01,    5.000000e+00
    8335,   -1.250000e+02,   -8.076923e+01,    5.000000e+00
    8336,   -1.190476e+02,   -7.500000e+01,    5.000000e+00
    8337,   -1.130952e+02,   -8.076923e+01,    5.000000e+00
    8338,   -1.071429e+02,   -7.500000e+01,    5.000000e+00
    8339,   -1.011905e+02,   -8.076923e+01,    5.000000e+00
    8340,   -9.523810e+01,   -7.500000e+01,    5.000000e+00
    8341,   -8.928571e+01,   -8.076923e+01,    5.000000e+00
    8342,   -8.333333e+01,   -7.500000e+01,    5.000000e+00
    8343,   -7.738095e+01,   -8.076923e+01,    5.000000e+00
    8344,   -7.142857e+01,   -7.500000e+01,    5.000000e+00
    8345,   -6.547619e+01,   -8.076923e+01,    5.000000e+00
    8346,   -5.952381e+01,   -7.500000e+01,    5.000000e+00
    8347,   -5.357143e+01,   -8.076923e+01,    5.000000e+00
    8348,   -4.761905e+01,   -7.500000e+01,    5.000000e+00
    8349,   -4.166667e+01,   -8.076923e+01,    5.000000e+00
    8350,   -3.571429e+01,   -7.500000e+01,    5.000000e+00
    8351,   -2.976190e+01,   -8.076923e+01,    5.000000e+00
    8352,   -2.380952e+01,   -7.500000e+01,    5.000000e+00
    8353,   -1.785714e+01,   -8.076923e+01,    5.000000e+00
    8354,   -1.190476e+01,   -7.500000e+01,    5.000000e+00
    8355,   -5.952381e+00,   -8.076923e+01,    5.000000e+00
    8356,   -2.440476e+02,   -9.230769e+01,    5.000000e+00
    8357,   -2.380952e+02,   -8.653846e+01,    5.000000e+00
    8358,   -2.321429e+02,   -9.230769e+01,    5.000000e+00
    8359,   -2.261905e+02,   -8.653846e+01,    5.000000e+00
    8360,   -2.202381e+02,   -9.230769e+01,    5.000000e+00
    8361,   -2.142857e+02,   -8.653846e+01,    5.000000e+00
    8362,   -2.083333e+02,   -9.230769e+01,    5.000000e+00
    8363,   -2.023810e+02,   -8.653846e+01,    5.000000e+00
    8364,   -1.964286e+02,   -9.230769e+01,    5.000000e+00
    8365,   -1.904762e+02,   -8.653846e+01,    5.000000e+00
    8366,   -1.845238e+02,   -9.230769e+01,    5.000000e+00
    8367,   -1.785714e+02,   -8.653846e+01,    5.000000e+00
    8368,   -1.726190e+02,   -9.230769e+01,    5.000000e+00
    8369,   -1.666667e+02,   -8.653846e+01,    5.000000e+00
    8370,   -1.607143e+02,   -9.230769e+01,    5.000000e+00
    8371,   -1.547619e+02,   -8.653846e+01,    5.000000e+00
    8372,   -1.488095e+02,   -9.230769e+01,    5.000000e+00
    8373,   -1.428571e+02,   -8.653846e+01,    5.000000e+00
    8374,   -1.369048e+02,   -9.230769e+01,    5.000000e+00
    8375,   -1.309524e+02,   -8.653846e+01,    5.000000e+00
    8376,   -1.250000e+02,   -9.230769e+01,    5.000000e+00
    8377,   -1.190476e+02,   -8.653846e+01,    5.000000e+00
    8378,   -1.130952e+02,   -9.230769e+01,    5.000000e+00
    8379,   -1.071429e+02,   -8.653846e+01,    5.000000e+00
    8380,   -1.011905e+02,   -9.230769e+01,    5.000000e+00
    8381,   -9.523810e+01,   -8.653846e+01,    5.000000e+00
    8382,   -8.928571e+01,   -9.230769e+01,    5.000000e+00
    8383,   -8.333333e+01,   -8.653846e+01,    5.000000e+00
    8384,   -7.738095e+01,   -9.230769e+01,    5.000000e+00
    8385,   -7.142857e+01,   -8.653846e+01,    5.000000e+00
    8386,   -6.547619e+01,   -9.230769e+01,    5.000000e+00
    8387,   -5.952381e+01,   -8.653846e+01,    5.000000e+00
    8388,   -5.357143e+01,   -9.230769e+01,    5.000000e+00
    8389,   -4.761905e+01,   -8.653846e+01,    5.000000e+00
    8390,   -4.166667e+01,   -9.230769e+01,    5.000000e+00
    8391,   -3.571429e+01,   -8.653846e+01,    5.000000e+00
    8392,   -2.976190e+01,   -9.230769e+01,    5.000000e+00
    8393,   -2.380952e+01,   -8.653846e+01,    5.000000e+00
    8394,   -1.785714e+01,   -9.230769e+01,    5.000000e+00
    8395,   -1.190476e+01,   -8.653846e+01,    5.000000e+00
    8396,   -5.952381e+00,   -9.230769e+01,    5.000000e+00
    8397,   -2.440476e+02,   -1.038462e+02,    5.000000e+00
    8398,   -2.380952e+02,   -9.807692e+01,    5.000000e+00
    8399,   -2.321429e+02,   -1.038462e+02,    5.000000e+00
    8400,   -2.261905e+02,   -9.807692e+01,    5.000000e+00
    8401,   -2.202381e+02,   -1.038462e+02,    5.000000e+00
    8402,   -2.142857e+02,   -9.807692e+01,    5.000000e+00
    8403,   -2.083333e+02,   -1.038462e+02,    5.000000e+00
    8404,   -2.023810e+02,   -9.807692e+01,    5.000000e+00
    8405,   -1.964286e+02,   -1.038462e+02,    5.000000e+00
    8406,   -1.904762e+02,   -9.807692e+01,    5.000000e+00
    8407,   -1.845238e+02,   -1.038462e+02,    5.000000e+00
    8408,   -1.785714e+02,   -9.807692e+01,    5.000000e+00
    8409,   -1.726190e+02,   -1.038462e+02,    5.000000e+00
    8410,   -1.666667e+02,   -9.807692e+01,    5.000000e+00
    8411,   -1.607143e+02,   -1.038462e+02,    5.000000e+00
    8412,   -1.547619e+02,   -9.807692e+01,    5.000000e+00
    8413,   -1.488095e+02,   -1.038462e+02,    5.000000e+00
    8414,   -1.428571e+02,   -9.807692e+01,    5.000000e+00
    8415,   -1.369048e+02,   -1.038462e+02,    5.000000e+00
    8416,   -1.309524e+02,   -9.807692e+01,    5.000000e+00
    8417,   -1.250000e+02,   -1.038462e+02,    5.000000e+00
    8418,   -1.190476e+02,   -9.807692e+01,    5.000000e+00
    8419,   -1.130952e+02,   -1.038462e+02,    5.000000e+00
    8420,   -1.071429e+02,   -9.807692e+01,    5.000000e+00
    8421,   -1.011905e+02,   -1.038462e+02,    5.000000e+00
    8422,   -9.523810e+01,   -9.807692e+01,    5.000000e+00
    8423,   -8.928571e+01,   -1.038462e+02,    5.000000e+00
    8424,   -8.333333e+01,   -9.807692e+01,    5.000000e+00
    8425,   -7.738095e+01,   -1.038462e+02,    5.000000e+00
    8426,   -7.142857e+01,   -9.807692e+01,    5.000000e+00
    8427,   -6.547619e+01,   -1.038462e+02,    5.000000e+00
    8428,   -5.952381e+01,   -9.807692e+01,    5.000000e+00
    8429,   -5.357143e+01,   -1.038462e+02,    5.000000e+00
    8430,   -4.761905e+01,   -9.807692e+01,    5.000000e+00
    8431,   -4.166667e+01,   -1.038462e+02,    5.000000e+00
    8432,   -3.571429e+01,   -9.807692e+01,    5.000000e+00
    8433,   -2.976190e+01,   -1.038462e+02,    5.000000e+00
    8434,   -2.380952e+01,   -9.807692e+01,    5.000000e+00
    8435,   -1.785714e+01,   -1.038462e+02,    5.000000e+00
    8436,   -1.190476e+01,   -9.807692e+01,    5.000000e+00
    8437,   -5.952381e+00,   -1.038462e+02,    5.000000e+00
    8438,   -2.440476e+02,   -1.153846e+02,    5.000000e+00
    8439,   -2.380952e+02,   -1.096154e+02,    5.000000e+00
    8440,   -2.321429e+02,   -1.153846e+02,    5.000000e+00
    8441,   -2.261905e+02,   -1.096154e+02,    5.000000e+00
    8442,   -2.202381e+02,   -1.153846e+02,    5.000000e+00
    8443,   -2.142857e+02,   -1.096154e+02,    5.000000e+00
    8444,   -2.083333e+02,   -1.153846e+02,    5.000000e+00
    8445,   -2.023810e+02,   -1.096154e+02,    5.000000e+00
    8446,   -1.964286e+02,   -1.153846e+02,    5.000000e+00
    8447,   -1.904762e+02,   -1.096154e+02,    5.000000e+00
    8448,   -1.845238e+02,   -1.153846e+02,    5.000000e+00
    8449,   -1.785714e+02,   -1.096154e+02,    5.000000e+00
    8450,   -1.726190e+02,   -1.153846e+02,    5.000000e+00
    8451,   -1.666667e+02,   -1.096154e+02,    5.000000e+00
    8452,   -1.607143e+02,   -1.153846e+02,    5.000000e+00
    8453,   -1.547619e+02,   -1.096154e+02,    5.000000e+00
    8454,   -1.488095e+02,   -1.153846e+02,    5.000000e+00
    8455,   -1.428571e+02,   -1.096154e+02,    5.000000e+00
    8456,   -1.369048e+02,   -1.153846e+02,    5.000000e+00
    8457,   -1.309524e+02,   -1.096154e+02,    5.000000e+00
    8458,   -1.250000e+02,   -1.153846e+02,    5.000000e+00
    8459,   -1.190476e+02,   -1.096154e+02,    5.000000e+00
    8460,   -1.130952e+02,   -1.153846e+02,    5.000000e+00
    8461,   -1.071429e+02,   -1.096154e+02,    5.000000e+00
    8462,   -1.011905e+02,   -1.153846e+02,    5.000000e+00
    8463,   -9.523810e+01,   -1.096154e+02,    5.000000e+00
    8464,   -8.928571e+01,   -1.153846e+02,    5.000000e+00
    8465,   -8.333333e+01,   -1.096154e+02,    5.000000e+00
    8466,   -7.738095e+01,   -1.153846e+02,    5.000000e+00
    8467,   -7.142857e+01,   -1.096154e+02,    5.000000e+00
    8468,   -6.547619e+01,   -1.153846e+02,    5.000000e+00
    8469,   -5.952381e+01,   -1.096154e+02,    5.000000e+00
    8470,   -5.357143e+01,   -1.153846e+02,    5.000000e+00
    8471,   -4.761905e+01,   -1.096154e+02,    5.000000e+00
    8472,   -4.166667e+01,   -1.153846e+02,    5.000000e+00
    8473,   -3.571429e+01,   -1.096154e+02,    5.000000e+00
    8474,   -2.976190e+01,   -1.153846e+02,    5.000000e+00
    8475,   -2.380952e+01,   -1.096154e+02,    5.000000e+00
    8476,   -1.785714e+01,   -1.153846e+02,    5.000000e+00
    8477,   -1.190476e+01,   -1.096154e+02,    5.000000e+00
    8478,   -5.952381e+00,   -1.153846e+02,    5.000000e+00
    8479,   -2.440476e+02,   -1.269231e+02,    5.000000e+00
    8480,   -2.380952e+02,   -1.211538e+02,    5.000000e+00
    8481,   -2.321429e+02,   -1.269231e+02,    5.000000e+00
    8482,   -2.261905e+02,   -1.211538e+02,    5.000000e+00
    8483,   -2.202381e+02,   -1.269231e+02,    5.000000e+00
    8484,   -2.142857e+02,   -1.211538e+02,    5.000000e+00
    8485,   -2.083333e+02,   -1.269231e+02,    5.000000e+00
    8486,   -2.023810e+02,   -1.211538e+02,    5.000000e+00
    8487,   -1.964286e+02,   -1.269231e+02,    5.000000e+00
    8488,   -1.904762e+02,   -1.211538e+02,    5.000000e+00
    8489,   -1.845238e+02,   -1.269231e+02,    5.000000e+00
    8490,   -1.785714e+02,   -1.211538e+02,    5.000000e+00
    8491,   -1.726190e+02,   -1.269231e+02,    5.000000e+00
    8492,   -1.666667e+02,   -1.211538e+02,    5.000000e+00
    8493,   -1.607143e+02,   -1.269231e+02,    5.000000e+00
    8494,   -1.547619e+02,   -1.211538e+02,    5.000000e+00
    8495,   -1.488095e+02,   -1.269231e+02,    5.000000e+00
    8496,   -1.428571e+02,   -1.211538e+02,    5.000000e+00
    8497,   -1.369048e+02,   -1.269231e+02,    5.000000e+00
    8498,   -1.309524e+02,   -1.211538e+02,    5.000000e+00
    8499,   -1.250000e+02,   -1.269231e+02,    5.000000e+00
    8500,   -1.190476e+02,   -1.211538e+02,    5.000000e+00
    8501,   -1.130952e+02,   -1.269231e+02,    5.000000e+00
    8502,   -1.071429e+02,   -1.211538e+02,    5.000000e+00
    8503,   -1.011905e+02,   -1.269231e+02,    5.000000e+00
    8504,   -9.523810e+01,   -1.211538e+02,    5.000000e+00
    8505,   -8.928571e+01,   -1.269231e+02,    5.000000e+00
    8506,   -8.333333e+01,   -1.211538e+02,    5.000000e+00
    8507,   -7.738095e+01,   -1.269231e+02,    5.000000e+00
    8508,   -7.142857e+01,   -1.211538e+02,    5.000000e+00
    8509,   -6.547619e+01,   -1.269231e+02,    5.000000e+00
    8510,   -5.952381e+01,   -1.211538e+02,    5.000000e+00
    8511,   -5.357143e+01,   -1.269231e+02,    5.000000e+00
    8512,   -4.761905e+01,   -1.211538e+02,    5.000000e+00
    8513,   -4.166667e+01,   -1.269231e+02,    5.000000e+00
    8514,   -3.571429e+01,   -1.211538e+02,    5.000000e+00
    8515,   -2.976190e+01,   -1.269231e+02,    5.000000e+00
    8516,   -2.380952e+01,   -1.211538e+02,    5.000000e+00
    8517,   -1.785714e+01,   -1.269231e+02,    5.000000e+00
    8518,   -1.190476e+01,   -1.211538e+02,    5.000000e+00
    8519,   -5.952381e+00,   -1.269231e+02,    5.000000e+00
    8520,   -2.440476e+02,   -1.384615e+02,    5.000000e+00
    8521,   -2.380952e+02,   -1.326923e+02,    5.000000e+00
    8522,   -2.321429e+02,   -1.384615e+02,    5.000000e+00
    8523,   -2.261905e+02,   -1.326923e+02,    5.000000e+00
    8524,   -2.202381e+02,   -1.384615e+02,    5.000000e+00
    8525,   -2.142857e+02,   -1.326923e+02,    5.000000e+00
    8526,   -2.083333e+02,   -1.384615e+02,    5.000000e+00
    8527,   -2.023810e+02,   -1.326923e+02,    5.000000e+00
    8528,   -1.964286e+02,   -1.384615e+02,    5.000000e+00
    8529,   -1.904762e+02,   -1.326923e+02,    5.000000e+00
    8530,   -1.845238e+02,   -1.384615e+02,    5.000000e+00
    8531,   -1.785714e+02,   -1.326923e+02,    5.000000e+00
    8532,   -1.726190e+02,   -1.384615e+02,    5.000000e+00
    8533,   -1.666667e+02,   -1.326923e+02,    5.000000e+00
    8534,   -1.607143e+02,   -1.384615e+02,    5.000000e+00
    8535,   -1.547619e+02,   -1.326923e+02,    5.000000e+00
    8536,   -1.488095e+02,   -1.384615e+02,    5.000000e+00
    8537,   -1.428571e+02,   -1.326923e+02,    5.000000e+00
    8538,   -1.369048e+02,   -1.384615e+02,    5.000000e+00
    8539,   -1.309524e+02,   -1.326923e+02,    5.000000e+00
    8540,   -1.250000e+02,   -1.384615e+02,    5.000000e+00
    8541,   -1.190476e+02,   -1.326923e+02,    5.000000e+00
    8542,   -1.130952e+02,   -1.384615e+02,    5.000000e+00
    8543,   -1.071429e+02,   -1.326923e+02,    5.000000e+00
    8544,   -1.011905e+02,   -1.384615e+02,    5.000000e+00
    8545,   -9.523810e+01,   -1.326923e+02,    5.000000e+00
    8546,   -8.928571e+01,   -1.384615e+02,    5.000000e+00
    8547,   -8.333333e+01,   -1.326923e+02,    5.000000e+00
    8548,   -7.738095e+01,   -1.384615e+02,    5.000000e+00
    8549,   -7.142857e+01,   -1.326923e+02,    5.000000e+00
    8550,   -6.547619e+01,   -1.384615e+02,    5.000000e+00
    8551,   -5.952381e+01,   -1.326923e+02,    5.000000e+00
    8552,   -5.357143e+01,   -1.384615e+02,    5.000000e+00
    8553,   -4.761905e+01,   -1.326923e+02,    5.000000e+00
    8554,   -4.166667e+01,   -1.384615e+02,    5.000000e+00
    8555,   -3.571429e+01,   -1.326923e+02,    5.000000e+00
    8556,   -2.976190e+01,   -1.384615e+02,    5.000000e+00
    8557,   -2.380952e+01,   -1.326923e+02,    5.000000e+00
    8558,   -1.785714e+01,   -1.384615e+02,    5.000000e+00
    8559,   -1.190476e+01,   -1.326923e+02,    5.000000e+00
    8560,   -5.952381e+00,   -1.384615e+02,    5.000000e+00
    8561,   -2.380952e+02,   -1.442308e+02,    5.000000e+00
    8562,   -2.261905e+02,   -1.442308e+02,    5.000000e+00
    8563,   -2.142857e+02,   -1.442308e+02,    5.000000e+00
    8564,   -2.023810e+02,   -1.442308e+02,    5.000000e+00
    8565,   -1.904762e+02,   -1.442308e+02,    5.000000e+00
    8566,   -1.785714e+02,   -1.442308e+02,    5.000000e+00
    8567,   -1.666667e+02,   -1.442308e+02,    5.000000e+00
    8568,   -1.547619e+02,   -1.442308e+02,    5.000000e+00
    8569,   -1.428571e+02,   -1.442308e+02,    5.000000e+00
    8570,   -1.309524e+02,   -1.442308e+02,    5.000000e+00
    8571,   -1.190476e+02,   -1.442308e+02,    5.000000e+00
    8572,   -1.071429e+02,   -1.442308e+02,    5.000000e+00
    8573,   -9.523810e+01,   -1.442308e+02,    5.000000e+00
    8574,   -8.333333e+01,   -1.442308e+02,    5.000000e+00
    8575,   -7.142857e+01,   -1.442308e+02,    5.000000e+00
    8576,   -5.952381e+01,   -1.442308e+02,    5.000000e+00
    8577,   -4.761905e+01,   -1.442308e+02,    5.000000e+00
    8578,   -3.571429e+01,   -1.442308e+02,    5.000000e+00
    8579,   -2.380952e+01,   -1.442308e+02,    5.000000e+00
    8580,   -1.190476e+01,   -1.442308e+02,    5.000000e+00
    8581,   -2.380952e+02,   -1.153846e+01,    0.000000e+00
    8582,   -2.261905e+02,   -1.153846e+01,    0.000000e+00
    8583,   -2.142857e+02,   -1.153846e+01,    0.000000e+00
    8584,   -2.023810e+02,   -1.153846e+01,    0.000000e+00
    8585,   -1.904762e+02,   -1.153846e+01,    0.000000e+00
    8586,   -1.785714e+02,   -1.153846e+01,    0.000000e+00
    8587,   -1.666667e+02,   -1.153846e+01,    0.000000e+00
    8588,   -1.547619e+02,   -1.153846e+01,    0.000000e+00
    8589,   -1.428571e+02,   -1.153846e+01,    0.000000e+00
    8590,   -1.309524e+02,   -1.153846e+01,    0.000000e+00
    8591,   -1.190476e+02,   -1.153846e+01,    0.000000e+00
    8592,   -1.071429e+02,   -1.153846e+01,    0.000000e+00
    8593,   -9.523810e+01,   -1.153846e+01,    0.000000e+00
    8594,   -8.333333e+01,   -1.153846e+01,    0.000000e+00
    8595,   -7.142857e+01,   -1.153846e+01,    0.000000e+00
    8596,   -5.952381e+01,   -1.153846e+01,    0.000000e+00
    8597,   -4.761905e+01,   -1.153846e+01,    0.000000e+00
    8598,   -3.571429e+01,   -1.153846e+01,    0.000000e+00
    8599,   -2.380952e+01,   -1.153846e+01,    0.000000e+00
    8600,   -1.190476e+01,   -1.153846e+01,    0.000000e+00
    8601,   -2.380952e+02,   -2.307692e+01,    0.000000e+00
    8602,   -2.261905e+02,   -2.307692e+01,    0.000000e+00
    8603,   -2.142857e+02,   -2.307692e+01,    0.000000e+00
    8604,   -2.023810e+02,   -2.307692e+01,    0.000000e+00
    8605,   -1.904762e+02,   -2.307692e+01,    0.000000e+00
    8606,   -1.785714e+02,   -2.307692e+01,    0.000000e+00
    8607,   -1.666667e+02,   -2.307692e+01,    0.000000e+00
    8608,   -1.547619e+02,   -2.307692e+01,    0.000000e+00
    8609,   -1.428571e+02,   -2.307692e+01,    0.000000e+00
    8610,   -1.309524e+02,   -2.307692e+01,    0.000000e+00
    8611,   -1.190476e+02,   -2.307692e+01,    0.000000e+00
    8612,   -1.071429e+02,   -2.307692e+01,    0.000000e+00
    8613,   -9.523810e+01,   -2.307692e+01,    0.000000e+00
    8614,   -8.333333e+01,   -2.307692e+01,    0.000000e+00
    8615,   -7.142857e+01,   -2.307692e+01,    0.000000e+00
    8616,   -5.952381e+01,   -2.307692e+01,    0.000000e+00
    8617,   -4.761905e+01,   -2.307692e+01,    0.000000e+00
    8618,   -3.571429e+01,   -2.307692e+01,    0.000000e+00
    8619,   -2.380952e+01,   -2.307692e+01,    0.000000e+00
    8620,   -1.190476e+01,   -2.307692e+01,    0.000000e+00
    8621,   -2.380952e+02,   -3.461538e+01,    0.000000e+00
    8622,   -2.261905e+02,   -3.461538e+01,    0.000000e+00
    8623,   -2.142857e+02,   -3.461538e+01,    0.000000e+00
    8624,   -2.023810e+02,   -3.461538e+01,    0.000000e+00
    8625,   -1.904762e+02,   -3.461538e+01,    0.000000e+00
    8626,   -1.785714e+02,   -3.461538e+01,    0.000000e+00
    8627,   -1.666667e+02,   -3.461538e+01,    0.000000e+00
    8628,   -1.547619e+02,   -3.461538e+01,    0.000000e+00
    8629,   -1.428571e+02,   -3.461538e+01,    0.000000e+00
    8630,   -1.309524e+02,   -3.461538e+01,    0.000000e+00
    8631,   -1.190476e+02,   -3.461538e+01,    0.000000e+00
    8632,   -1.071429e+02,   -3.461538e+01,    0.000000e+00
    8633,   -9.523810e+01,   -3.461538e+01,    0.000000e+00
    8634,   -8.333333e+01,   -3.461538e+01,    0.000000e+00
    8635,   -7.142857e+01,   -3.461538e+01,    0.000000e+00
    8636,   -5.952381e+01,   -3.461538e+01,    0.000000e+00
    8637,   -4.761905e+01,   -3.461538e+01,    0.000000e+00
    8638,   -3.571429e+01,   -3.461538e+01,    0.000000e+00
    8639,   -2.380952e+01,   -3.461538e+01,    0.000000e+00
    8640,   -1.190476e+01,   -3.461538e+01,    0.000000e+00
    8641,   -2.380952e+02,   -4.615385e+01,    0.000000e+00
    8642,   -2.261905e+02,   -4.615385e+01,    0.000000e+00
    8643,   -2.142857e+02,   -4.615385e+01,    0.000000e+00
    8644,   -2.023810e+02,   -4.615385e+01,    0.000000e+00
    8645,   -1.904762e+02,   -4.615385e+01,    0.000000e+00
    8646,   -1.785714e+02,   -4.615385e+01,    0.000000e+00
    8647,   -1.666667e+02,   -4.615385e+01,    0.000000e+00
    8648,   -1.547619e+02,   -4.615385e+01,    0.000000e+00
    8649,   -1.428571e+02,   -4.615385e+01,    0.000000e+00
    8650,   -1.309524e+02,   -4.615385e+01,    0.000000e+00
    8651,   -1.190476e+02,   -4.615385e+01,    0.000000e+00
    8652,   -1.071429e+02,   -4.615385e+01,    0.000000e+00
    8653,   -9.523810e+01,   -4.615385e+01,    0.000000e+00
    8654,   -8.333333e+01,   -4.615385e+01,    0.000000e+00
    8655,   -7.142857e+01,   -4.615385e+01,    0.000000e+00
    8656,   -5.952381e+01,   -4.615385e+01,    0.000000e+00
    8657,   -4.761905e+01,   -4.615385e+01,    0.000000e+00
    8658,   -3.571429e+01,   -4.615385e+01,    0.000000e+00
    8659,   -2.380952e+01,   -4.615385e+01,    0.000000e+00
    8660,   -1.190476e+01,   -4.615385e+01,    0.000000e+00
    8661,   -2.380952e+02,   -5.769231e+01,    0.000000e+00
    8662,   -2.261905e+02,   -5.769231e+01,    0.000000e+00
    8663,   -2.142857e+02,   -5.769231e+01,    0.000000e+00
    8664,   -2.023810e+02,   -5.769231e+01,    0.000000e+00
    8665,   -1.904762e+02,   -5.769231e+01,    0.000000e+00
    8666,   -1.785714e+02,   -5.769231e+01,    0.000000e+00
    8667,   -1.666667e+02,   -5.769231e+01,    0.000000e+00
    8668,   -1.547619e+02,   -5.769231e+01,    0.000000e+00
    8669,   -1.428571e+02,   -5.769231e+01,    0.000000e+00
    8670,   -1.309524e+02,   -5.769231e+01,    0.000000e+00
    8671,   -1.190476e+02,   -5.769231e+01,    0.000000e+00
    8672,   -1.071429e+02,   -5.769231e+01,    0.000000e+00
    8673,   -9.523810e+01,   -5.769231e+01,    0.000000e+00
    8674,   -8.333333e+01,   -5.769231e+01,    0.000000e+00
    8675,   -7.142857e+01,   -5.769231e+01,    0.000000e+00
    8676,   -5.952381e+01,   -5.769231e+01,    0.000000e+00
    8677,   -4.761905e+01,   -5.769231e+01,    0.000000e+00
    8678,   -3.571429e+01,   -5.769231e+01,    0.000000e+00
    8679,   -2.380952e+01,   -5.769231e+01,    0.000000e+00
    8680,   -1.190476e+01,   -5.769231e+01,    0.000000e+00
    8681,   -2.380952e+02,   -6.923077e+01,    0.000000e+00
    8682,   -2.261905e+02,   -6.923077e+01,    0.000000e+00
    8683,   -2.142857e+02,   -6.923077e+01,    0.000000e+00
    8684,   -2.023810e+02,   -6.923077e+01,    0.000000e+00
    8685,   -1.904762e+02,   -6.923077e+01,    0.000000e+00
    8686,   -1.785714e+02,   -6.923077e+01,    0.000000e+00
    8687,   -1.666667e+02,   -6.923077e+01,    0.000000e+00
    8688,   -1.547619e+02,   -6.923077e+01,    0.000000e+00
    8689,   -1.428571e+02,   -6.923077e+01,    0.000000e+00
    8690,   -1.309524e+02,   -6.923077e+01,    0.000000e+00
    8691,   -1.190476e+02,   -6.923077e+01,    0.000000e+00
    8692,   -1.071429e+02,   -6.923077e+01,    0.000000e+00
    8693,   -9.523810e+01,   -6.923077e+01,    0.000000e+00
    8694,   -8.333333e+01,   -6.923077e+01,    0.000000e+00
    8695,   -7.142857e+01,   -6.923077e+01,    0.000000e+00
    8696,   -5.952381e+01,   -6.923077e+01,    0.000000e+00
    8697,   -4.761905e+01,   -6.923077e+01,    0.000000e+00
    8698,   -3.571429e+01,   -6.923077e+01,    0.000000e+00
    8699,   -2.380952e+01,   -6.923077e+01,    0.000000e+00
    8700,   -1.190476e+01,   -6.923077e+01,    0.000000e+00
    8701,   -2.380952e+02,   -8.076923e+01,    0.000000e+00
    8702,   -2.261905e+02,   -8.076923e+01,    0.000000e+00
    8703,   -2.142857e+02,   -8.076923e+01,    0.000000e+00
    8704,   -2.023810e+02,   -8.076923e+01,    0.000000e+00
    8705,   -1.904762e+02,   -8.076923e+01,    0.000000e+00
    8706,   -1.785714e+02,   -8.076923e+01,    0.000000e+00
    8707,   -1.666667e+02,   -8.076923e+01,    0.000000e+00
    8708,   -1.547619e+02,   -8.076923e+01,    0.000000e+00
    8709,   -1.428571e+02,   -8.076923e+01,    0.000000e+00
    8710,   -1.309524e+02,   -8.076923e+01,    0.000000e+00
    8711,   -1.190476e+02,   -8.076923e+01,    0.000000e+00
    8712,   -1.071429e+02,   -8.076923e+01,    0.000000e+00
    8713,   -9.523810e+01,   -8.076923e+01,    0.000000e+00
    8714,   -8.333333e+01,   -8.076923e+01,    0.000000e+00
    8715,   -7.142857e+01,   -8.076923e+01,    0.000000e+00
    8716,   -5.952381e+01,   -8.076923e+01,    0.000000e+00
    8717,   -4.761905e+01,   -8.076923e+01,    0.000000e+00
    8718,   -3.571429e+01,   -8.076923e+01,    0.000000e+00
    8719,   -2.380952e+01,   -8.076923e+01,    0.000000e+00
    8720,   -1.190476e+01,   -8.076923e+01,    0.000000e+00
    8721,   -2.380952e+02,   -9.230769e+01,    0.000000e+00
    8722,   -2.261905e+02,   -9.230769e+01,    0.000000e+00
    8723,   -2.142857e+02,   -9.230769e+01,    0.000000e+00
    8724,   -2.023810e+02,   -9.230769e+01,    0.000000e+00
    8725,   -1.904762e+02,   -9.230769e+01,    0.000000e+00
    8726,   -1.785714e+02,   -9.230769e+01,    0.000000e+00
    8727,   -1.666667e+02,   -9.230769e+01,    0.000000e+00
    8728,   -1.547619e+02,   -9.230769e+01,    0.000000e+00
    8729,   -1.428571e+02,   -9.230769e+01,    0.000000e+00
    8730,   -1.309524e+02,   -9.230769e+01,    0.000000e+00
    8731,   -1.190476e+02,   -9.230769e+01,    0.000000e+00
    8732,   -1.071429e+02,   -9.230769e+01,    0.000000e+00
    8733,   -9.523810e+01,   -9.230769e+01,    0.000000e+00
    8734,   -8.333333e+01,   -9.230769e+01,    0.000000e+00
    8735,   -7.142857e+01,   -9.230769e+01,    0.000000e+00
    8736,   -5.952381e+01,   -9.230769e+01,    0.000000e+00
    8737,   -4.761905e+01,   -9.230769e+01,    0.000000e+00
    8738,   -3.571429e+01,   -9.230769e+01,    0.000000e+00
    8739,   -2.380952e+01,   -9.230769e+01,    0.000000e+00
    8740,   -1.190476e+01,   -9.230769e+01,    0.000000e+00
    8741,   -2.380952e+02,   -1.038462e+02,    0.000000e+00
    8742,   -2.261905e+02,   -1.038462e+02,    0.000000e+00
    8743,   -2.142857e+02,   -1.038462e+02,    0.000000e+00
    8744,   -2.023810e+02,   -1.038462e+02,    0.000000e+00
    8745,   -1.904762e+02,   -1.038462e+02,    0.000000e+00
    8746,   -1.785714e+02,   -1.038462e+02,    0.000000e+00
    8747,   -1.666667e+02,   -1.038462e+02,    0.000000e+00
    8748,   -1.547619e+02,   -1.038462e+02,    0.000000e+00
    8749,   -1.428571e+02,   -1.038462e+02,    0.000000e+00
    8750,   -1.309524e+02,   -1.038462e+02,    0.000000e+00
    8751,   -1.190476e+02,   -1.038462e+02,    0.000000e+00
    8752,   -1.071429e+02,   -1.038462e+02,    0.000000e+00
    8753,   -9.523810e+01,   -1.038462e+02,    0.000000e+00
    8754,   -8.333333e+01,   -1.038462e+02,    0.000000e+00
    8755,   -7.142857e+01,   -1.038462e+02,    0.000000e+00
    8756,   -5.952381e+01,   -1.038462e+02,    0.000000e+00
    8757,   -4.761905e+01,   -1.038462e+02,    0.000000e+00
    8758,   -3.571429e+01,   -1.038462e+02,    0.000000e+00
    8759,   -2.380952e+01,   -1.038462e+02,    0.000000e+00
    8760,   -1.190476e+01,   -1.038462e+02,    0.000000e+00
    8761,   -2.380952e+02,   -1.153846e+02,    0.000000e+00
    8762,   -2.261905e+02,   -1.153846e+02,    0.000000e+00
    8763,   -2.142857e+02,   -1.153846e+02,    0.000000e+00
    8764,   -2.023810e+02,   -1.153846e+02,    0.000000e+00
    8765,   -1.904762e+02,   -1.153846e+02,    0.000000e+00
    8766,   -1.785714e+02,   -1.153846e+02,    0.000000e+00
    8767,   -1.666667e+02,   -1.153846e+02,    0.000000e+00
    8768,   -1.547619e+02,   -1.153846e+02,    0.000000e+00
    8769,   -1.428571e+02,   -1.153846e+02,    0.000000e+00
    8770,   -1.309524e+02,   -1.153846e+02,    0.000000e+00
    8771,   -1.190476e+02,   -1.153846e+02,    0.000000e+00
    8772,   -1.071429e+02,   -1.153846e+02,    0.000000e+00
    8773,   -9.523810e+01,   -1.153846e+02,    0.000000e+00
    8774,   -8.333333e+01,   -1.153846e+02,    0.000000e+00
    8775,   -7.142857e+01,   -1.153846e+02,    0.000000e+00
    8776,   -5.952381e+01,   -1.153846e+02,    0.000000e+00
    8777,   -4.761905e+01,   -1.153846e+02,    0.000000e+00
    8778,   -3.571429e+01,   -1.153846e+02,    0.000000e+00
    8779,   -2.380952e+01,   -1.153846e+02,    0.000000e+00
    8780,   -1.190476e+01,   -1.153846e+02,    0.000000e+00
    8781,   -2.380952e+02,   -1.269231e+02,    0.000000e+00
    8782,   -2.261905e+02,   -1.269231e+02,    0.000000e+00
    8783,   -2.142857e+02,   -1.269231e+02,    0.000000e+00
    8784,   -2.023810e+02,   -1.269231e+02,    0.000000e+00
    8785,   -1.904762e+02,   -1.269231e+02,    0.000000e+00
    8786,   -1.785714e+02,   -1.269231e+02,    0.000000e+00
    8787,   -1.666667e+02,   -1.269231e+02,    0.000000e+00
    8788,   -1.547619e+02,   -1.269231e+02,    0.000000e+00
    8789,   -1.428571e+02,   -1.269231e+02,    0.000000e+00
    8790,   -1.309524e+02,   -1.269231e+02,    0.000000e+00
    8791,   -1.190476e+02,   -1.269231e+02,    0.000000e+00
    8792,   -1.071429e+02,   -1.269231e+02,    0.000000e+00
    8793,   -9.523810e+01,   -1.269231e+02,    0.000000e+00
    8794,   -8.333333e+01,   -1.269231e+02,    0.000000e+00
    8795,   -7.142857e+01,   -1.269231e+02,    0.000000e+00
    8796,   -5.952381e+01,   -1.269231e+02,    0.000000e+00
    8797,   -4.761905e+01,   -1.269231e+02,    0.000000e+00
    8798,   -3.571429e+01,   -1.269231e+02,    0.000000e+00
    8799,   -2.380952e+01,   -1.269231e+02,    0.000000e+00
    8800,   -1.190476e+01,   -1.269231e+02,    0.000000e+00
    8801,   -2.380952e+02,   -1.384615e+02,    0.000000e+00
    8802,   -2.261905e+02,   -1.384615e+02,    0.000000e+00
    8803,   -2.142857e+02,   -1.384615e+02,    0.000000e+00
    8804,   -2.023810e+02,   -1.384615e+02,    0.000000e+00
    8805,   -1.904762e+02,   -1.384615e+02,    0.000000e+00
    8806,   -1.785714e+02,   -1.384615e+02,    0.000000e+00
    8807,   -1.666667e+02,   -1.384615e+02,    0.000000e+00
    8808,   -1.547619e+02,   -1.384615e+02,    0.000000e+00
    8809,   -1.428571e+02,   -1.384615e+02,    0.000000e+00
    8810,   -1.309524e+02,   -1.384615e+02,    0.000000e+00
    8811,   -1.190476e+02,   -1.384615e+02,    0.000000e+00
    8812,   -1.071429e+02,   -1.384615e+02,    0.000000e+00
    8813,   -9.523810e+01,   -1.384615e+02,    0.000000e+00
    8814,   -8.333333e+01,   -1.384615e+02,    0.000000e+00
    8815,   -7.142857e+01,   -1.384615e+02,    0.000000e+00
    8816,   -5.952381e+01,   -1.384615e+02,    0.000000e+00
    8817,   -4.761905e+01,   -1.384615e+02,    0.000000e+00
    8818,   -3.571429e+01,   -1.384615e+02,    0.000000e+00
    8819,   -2.380952e+01,   -1.384615e+02,    0.000000e+00
    8820,   -1.190476e+01,   -1.384615e+02,    0.000000e+00
    8821,    0.000000e+00,   -1.562500e+02,    5.000000e+00
    8822,    0.000000e+00,   -1.687500e+02,    5.000000e+00
    8823,    0.000000e+00,   -1.812500e+02,    5.000000e+00
    8824,    0.000000e+00,   -1.937500e+02,    5.000000e+00
    8825,    0.000000e+00,   -2.062500e+02,    5.000000e+00
    8826,    0.000000e+00,   -2.187500e+02,    5.000000e+00
    8827,    0.000000e+00,   -2.312500e+02,    5.000000e+00
    8828,    0.000000e+00,   -2.437500e+02,    5.000000e+00
    8829,    0.000000e+00,   -2.500000e+02,    0.000000e+00
    8830,    0.000000e+00,   -2.437500e+02,   -5.000000e+00
    8831,    0.000000e+00,   -2.312500e+02,   -5.000000e+00
    8832,    0.000000e+00,   -2.187500e+02,   -5.000000e+00
    8833,    0.000000e+00,   -2.062500e+02,   -5.000000e+00
    8834,    0.000000e+00,   -1.937500e+02,   -5.000000e+00
    8835,    0.000000e+00,   -1.812500e+02,   -5.000000e+00
    8836,    0.000000e+00,   -1.687500e+02,   -5.000000e+00
    8837,    0.000000e+00,   -1.562500e+02,   -5.000000e+00
    8838,    0.000000e+00,   -1.625000e+02,    0.000000e+00
    8839,    0.000000e+00,   -1.750000e+02,    0.000000e+00
    8840,    0.000000e+00,   -1.875000e+02,    0.000000e+00
    8841,    0.000000e+00,   -2.000000e+02,    0.000000e+00
    8842,    0.000000e+00,   -2.125000e+02,    0.000000e+00
    8843,    0.000000e+00,   -2.250000e+02,    0.000000e+00
    8844,    0.000000e+00,   -2.375000e+02,    0.000000e+00
    8845,   -2.500000e+02,   -1.562500e+02,    5.000000e+00
    8846,   -2.500000e+02,   -1.687500e+02,    5.000000e+00
    8847,   -2.500000e+02,   -1.812500e+02,    5.000000e+00
    8848,   -2.500000e+02,   -1.937500e+02,    5.000000e+00
    8849,   -2.500000e+02,   -2.062500e+02,    5.000000e+00
    8850,   -2.500000e+02,   -2.187500e+02,    5.000000e+00
    8851,   -2.500000e+02,   -2.312500e+02,    5.000000e+00
    8852,   -2.500000e+02,   -2.437500e+02,    5.000000e+00
    8853,   -2.440476e+02,   -2.500000e+02,    5.000000e+00
    8854,   -2.321429e+02,   -2.500000e+02,    5.000000e+00
    8855,   -2.202381e+02,   -2.500000e+02,    5.000000e+00
    8856,   -2.083333e+02,   -2.500000e+02,    5.000000e+00
    8857,   -1.964286e+02,   -2.500000e+02,    5.000000e+00
    8858,   -1.845238e+02,   -2.500000e+02,    5.000000e+00
    8859,   -1.726190e+02,   -2.500000e+02,    5.000000e+00
    8860,   -1.607143e+02,   -2.500000e+02,    5.000000e+00
    8861,   -1.488095e+02,   -2.500000e+02,    5.000000e+00
    8862,   -1.369048e+02,   -2.500000e+02,    5.000000e+00
    8863,   -1.250000e+02,   -2.500000e+02,    5.000000e+00
    8864,   -1.130952e+02,   -2.500000e+02,    5.000000e+00
    8865,   -1.011905e+02,   -2.500000e+02,    5.000000e+00
    8866,   -8.928571e+01,   -2.500000e+02,    5.000000e+00
    8867,   -7.738095e+01,   -2.500000e+02,    5.000000e+00
    8868,   -6.547619e+01,   -2.500000e+02,    5.000000e+00
    8869,   -5.357143e+01,   -2.500000e+02,    5.000000e+00
    8870,   -4.166667e+01,   -2.500000e+02,    5.000000e+00
    8871,   -2.976190e+01,   -2.500000e+02,    5.000000e+00
    8872,   -1.785714e+01,   -2.500000e+02,    5.000000e+00
    8873,   -5.952381e+00,   -2.500000e+02,    5.000000e+00
    8874,   -5.952381e+00,   -2.375000e+02,    5.000000e+00
    8875,   -1.190476e+01,   -2.437500e+02,    5.000000e+00
    8876,   -1.785714e+01,   -2.375000e+02,    5.000000e+00
    8877,   -2.380952e+01,   -2.437500e+02,    5.000000e+00
    8878,   -2.976190e+01,   -2.375000e+02,    5.000000e+00
    8879,   -3.571429e+01,   -2.437500e+02,    5.000000e+00
    8880,   -4.166667e+01,   -2.375000e+02,    5.000000e+00
    8881,   -4.761905e+01,   -2.437500e+02,    5.000000e+00
    8882,   -5.357143e+01,   -2.375000e+02,    5.000000e+00
    8883,   -5.952381e+01,   -2.437500e+02,    5.000000e+00
    8884,   -6.547619e+01,   -2.375000e+02,    5.000000e+00
    8885,   -7.142857e+01,   -2.437500e+02,    5.000000e+00
    8886,   -7.738095e+01,   -2.375000e+02,    5.000000e+00
    8887,   -8.333333e+01,   -2.437500e+02,    5.000000e+00
    8888,   -8.928571e+01,   -2.375000e+02,    5.000000e+00
    8889,   -9.523810e+01,   -2.437500e+02,    5.000000e+00
    8890,   -1.011905e+02,   -2.375000e+02,    5.000000e+00
    8891,   -1.071429e+02,   -2.437500e+02,    5.000000e+00
    8892,   -1.130952e+02,   -2.375000e+02,    5.000000e+00
    8893,   -1.190476e+02,   -2.437500e+02,    5.000000e+00
    8894,   -1.250000e+02,   -2.375000e+02,    5.000000e+00
    8895,   -1.309524e+02,   -2.437500e+02,    5.000000e+00
    8896,   -1.369048e+02,   -2.375000e+02,    5.000000e+00
    8897,   -1.428571e+02,   -2.437500e+02,    5.000000e+00
    8898,   -1.488095e+02,   -2.375000e+02,    5.000000e+00
    8899,   -1.547619e+02,   -2.437500e+02,    5.000000e+00
    8900,   -1.607143e+02,   -2.375000e+02,    5.000000e+00
    8901,   -1.666667e+02,   -2.437500e+02,    5.000000e+00
    8902,   -1.726190e+02,   -2.375000e+02,    5.000000e+00
    8903,   -1.785714e+02,   -2.437500e+02,    5.000000e+00
    8904,   -1.845238e+02,   -2.375000e+02,    5.000000e+00
    8905,   -1.904762e+02,   -2.437500e+02,    5.000000e+00
    8906,   -1.964286e+02,   -2.375000e+02,    5.000000e+00
    8907,   -2.023810e+02,   -2.437500e+02,    5.000000e+00
    8908,   -2.083333e+02,   -2.375000e+02,    5.000000e+00
    8909,   -2.142857e+02,   -2.437500e+02,    5.000000e+00
    8910,   -2.202381e+02,   -2.375000e+02,    5.000000e+00
    8911,   -2.261905e+02,   -2.437500e+02,    5.000000e+00
    8912,   -2.321429e+02,   -2.375000e+02,    5.000000e+00
    8913,   -2.380952e+02,   -2.437500e+02,    5.000000e+00
    8914,   -2.440476e+02,   -2.375000e+02,    5.000000e+00
    8915,   -5.952381e+00,   -2.250000e+02,    5.000000e+00
    8916,   -1.190476e+01,   -2.312500e+02,    5.000000e+00
    8917,   -1.785714e+01,   -2.250000e+02,    5.000000e+00
    8918,   -2.380952e+01,   -2.312500e+02,    5.000000e+00
    8919,   -2.976190e+01,   -2.250000e+02,    5.000000e+00
    8920,   -3.571429e+01,   -2.312500e+02,    5.000000e+00
    8921,   -4.166667e+01,   -2.250000e+02,    5.000000e+00
    8922,   -4.761905e+01,   -2.312500e+02,    5.000000e+00
    8923,   -5.357143e+01,   -2.250000e+02,    5.000000e+00
    8924,   -5.952381e+01,   -2.312500e+02,    5.000000e+00
    8925,   -6.547619e+01,   -2.250000e+02,    5.000000e+00
    8926,   -7.142857e+01,   -2.312500e+02,    5.000000e+00
    8927,   -7.738095e+01,   -2.250000e+02,    5.000000e+00
    8928,   -8.333333e+01,   -2.312500e+02,    5.000000e+00
    8929,   -8.928571e+01,   -2.250000e+02,    5.000000e+00
    8930,   -9.523810e+01,   -2.312500e+02,    5.000000e+00
    8931,   -1.011905e+02,   -2.250000e+02,    5.000000e+00
    8932,   -1.071429e+02,   -2.312500e+02,    5.000000e+00
    8933,   -1.130952e+02,   -2.250000e+02,    5.000000e+00
    8934,   -1.190476e+02,   -2.312500e+02,    5.000000e+00
    8935,   -1.250000e+02,   -2.250000e+02,    5.000000e+00
    8936,   -1.309524e+02,   -2.312500e+02,    5.000000e+00
    8937,   -1.369048e+02,   -2.250000e+02,    5.000000e+00
    8938,   -1.428571e+02,   -2.312500e+02,    5.000000e+00
    8939,   -1.488095e+02,   -2.250000e+02,    5.000000e+00
    8940,   -1.547619e+02,   -2.312500e+02,    5.000000e+00
    8941,   -1.607143e+02,   -2.250000e+02,    5.000000e+00
    8942,   -1.666667e+02,   -2.312500e+02,    5.000000e+00
    8943,   -1.726190e+02,   -2.250000e+02,    5.000000e+00
    8944,   -1.785714e+02,   -2.312500e+02,    5.000000e+00
    8945,   -1.845238e+02,   -2.250000e+02,    5.000000e+00
    8946,   -1.904762e+02,   -2.312500e+02,    5.000000e+00
    8947,   -1.964286e+02,   -2.250000e+02,    5.000000e+00
    8948,   -2.023810e+02,   -2.312500e+02,    5.000000e+00
    8949,   -2.083333e+02,   -2.250000e+02,    5.000000e+00
    8950,   -2.142857e+02,   -2.312500e+02,    5.000000e+00
    8951,   -2.202381e+02,   -2.250000e+02,    5.000000e+00
    8952,   -2.261905e+02,   -2.312500e+02,    5.000000e+00
    8953,   -2.321429e+02,   -2.250000e+02,    5.000000e+00
    8954,   -2.380952e+02,   -2.312500e+02,    5.000000e+00
    8955,   -2.440476e+02,   -2.250000e+02,    5.000000e+00
    8956,   -5.952381e+00,   -2.125000e+02,    5.000000e+00
    8957,   -1.190476e+01,   -2.187500e+02,    5.000000e+00
    8958,   -1.785714e+01,   -2.125000e+02,    5.000000e+00
    8959,   -2.380952e+01,   -2.187500e+02,    5.000000e+00
    8960,   -2.976190e+01,   -2.125000e+02,    5.000000e+00
    8961,   -3.571429e+01,   -2.187500e+02,    5.000000e+00
    8962,   -4.166667e+01,   -2.125000e+02,    5.000000e+00
    8963,   -4.761905e+01,   -2.187500e+02,    5.000000e+00
    8964,   -5.357143e+01,   -2.125000e+02,    5.000000e+00
    8965,   -5.952381e+01,   -2.187500e+02,    5.000000e+00
    8966,   -6.547619e+01,   -2.125000e+02,    5.000000e+00
    8967,   -7.142857e+01,   -2.187500e+02,    5.000000e+00
    8968,   -7.738095e+01,   -2.125000e+02,    5.000000e+00
    8969,   -8.333333e+01,   -2.187500e+02,    5.000000e+00
    8970,   -8.928571e+01,   -2.125000e+02,    5.000000e+00
    8971,   -9.523810e+01,   -2.187500e+02,    5.000000e+00
    8972,   -1.011905e+02,   -2.125000e+02,    5.000000e+00
    8973,   -1.071429e+02,   -2.187500e+02,    5.000000e+00
    8974,   -1.130952e+02,   -2.125000e+02,    5.000000e+00
    8975,   -1.190476e+02,   -2.187500e+02,    5.000000e+00
    8976,   -1.250000e+02,   -2.125000e+02,    5.000000e+00
    8977,   -1.309524e+02,   -2.187500e+02,    5.000000e+00
    8978,   -1.369048e+02,   -2.125000e+02,    5.000000e+00
    8979,   -1.428571e+02,   -2.187500e+02,    5.000000e+00
    8980,   -1.488095e+02,   -2.125000e+02,    5.000000e+00
    8981,   -1.547619e+02,   -2.187500e+02,    5.000000e+00
    8982,   -1.607143e+02,   -2.125000e+02,    5.000000e+00
    8983,   -1.666667e+02,   -2.187500e+02,    5.000000e+00
    8984,   -1.726190e+02,   -2.125000e+02,    5.000000e+00
    8985,   -1.785714e+02,   -2.187500e+02,    5.000000e+00
    8986,   -1.845238e+02,   -2.125000e+02,    5.000000e+00
    8987,   -1.904762e+02,   -2.187500e+02,    5.000000e+00
    8988,   -1.964286e+02,   -2.125000e+02,    5.000000e+00
    8989,   -2.023810e+02,   -2.187500e+02,    5.000000e+00
    8990,   -2.083333e+02,   -2.125000e+02,    5.000000e+00
    8991,   -2.142857e+02,   -2.187500e+02,    5.000000e+00
    8992,   -2.202381e+02,   -2.125000e+02,    5.000000e+00
    8993,   -2.261905e+02,   -2.187500e+02,    5.000000e+00
    8994,   -2.321429e+02,   -2.125000e+02,    5.000000e+00
    8995,   -2.380952e+02,   -2.187500e+02,    5.000000e+00
    8996,   -2.440476e+02,   -2.125000e+02,    5.000000e+00
    8997,   -5.952381e+00,   -2.000000e+02,    5.000000e+00
    8998,   -1.190476e+01,   -2.062500e+02,    5.000000e+00
    8999,   -1.785714e+01,   -2.000000e+02,    5.000000e+00
    9000,   -2.380952e+01,   -2.062500e+02,    5.000000e+00
    9001,   -2.976190e+01,   -2.000000e+02,    5.000000e+00
    9002,   -3.571429e+01,   -2.062500e+02,    5.000000e+00
    9003,   -4.166667e+01,   -2.000000e+02,    5.000000e+00
    9004,   -4.761905e+01,   -2.062500e+02,    5.000000e+00
    9005,   -5.357143e+01,   -2.000000e+02,    5.000000e+00
    9006,   -5.952381e+01,   -2.062500e+02,    5.000000e+00
    9007,   -6.547619e+01,   -2.000000e+02,    5.000000e+00
    9008,   -7.142857e+01,   -2.062500e+02,    5.000000e+00
    9009,   -7.738095e+01,   -2.000000e+02,    5.000000e+00
    9010,   -8.333333e+01,   -2.062500e+02,    5.000000e+00
    9011,   -8.928571e+01,   -2.000000e+02,    5.000000e+00
    9012,   -9.523810e+01,   -2.062500e+02,    5.000000e+00
    9013,   -1.011905e+02,   -2.000000e+02,    5.000000e+00
    9014,   -1.071429e+02,   -2.062500e+02,    5.000000e+00
    9015,   -1.130952e+02,   -2.000000e+02,    5.000000e+00
    9016,   -1.190476e+02,   -2.062500e+02,    5.000000e+00
    9017,   -1.250000e+02,   -2.000000e+02,    5.000000e+00
    9018,   -1.309524e+02,   -2.062500e+02,    5.000000e+00
    9019,   -1.369048e+02,   -2.000000e+02,    5.000000e+00
    9020,   -1.428571e+02,   -2.062500e+02,    5.000000e+00
    9021,   -1.488095e+02,   -2.000000e+02,    5.000000e+00
    9022,   -1.547619e+02,   -2.062500e+02,    5.000000e+00
    9023,   -1.607143e+02,   -2.000000e+02,    5.000000e+00
    9024,   -1.666667e+02,   -2.062500e+02,    5.000000e+00
    9025,   -1.726190e+02,   -2.000000e+02,    5.000000e+00
    9026,   -1.785714e+02,   -2.062500e+02,    5.000000e+00
    9027,   -1.845238e+02,   -2.000000e+02,    5.000000e+00
    9028,   -1.904762e+02,   -2.062500e+02,    5.000000e+00
    9029,   -1.964286e+02,   -2.000000e+02,    5.000000e+00
    9030,   -2.023810e+02,   -2.062500e+02,    5.000000e+00
    9031,   -2.083333e+02,   -2.000000e+02,    5.000000e+00
    9032,   -2.142857e+02,   -2.062500e+02,    5.000000e+00
    9033,   -2.202381e+02,   -2.000000e+02,    5.000000e+00
    9034,   -2.261905e+02,   -2.062500e+02,    5.000000e+00
    9035,   -2.321429e+02,   -2.000000e+02,    5.000000e+00
    9036,   -2.380952e+02,   -2.062500e+02,    5.000000e+00
    9037,   -2.440476e+02,   -2.000000e+02,    5.000000e+00
    9038,   -5.952381e+00,   -1.875000e+02,    5.000000e+00
    9039,   -1.190476e+01,   -1.937500e+02,    5.000000e+00
    9040,   -1.785714e+01,   -1.875000e+02,    5.000000e+00
    9041,   -2.380952e+01,   -1.937500e+02,    5.000000e+00
    9042,   -2.976190e+01,   -1.875000e+02,    5.000000e+00
    9043,   -3.571429e+01,   -1.937500e+02,    5.000000e+00
    9044,   -4.166667e+01,   -1.875000e+02,    5.000000e+00
    9045,   -4.761905e+01,   -1.937500e+02,    5.000000e+00
    9046,   -5.357143e+01,   -1.875000e+02,    5.000000e+00
    9047,   -5.952381e+01,   -1.937500e+02,    5.000000e+00
    9048,   -6.547619e+01,   -1.875000e+02,    5.000000e+00
    9049,   -7.142857e+01,   -1.937500e+02,    5.000000e+00
    9050,   -7.738095e+01,   -1.875000e+02,    5.000000e+00
    9051,   -8.333333e+01,   -1.937500e+02,    5.000000e+00
    9052,   -8.928571e+01,   -1.875000e+02,    5.000000e+00
    9053,   -9.523810e+01,   -1.937500e+02,    5.000000e+00
    9054,   -1.011905e+02,   -1.875000e+02,    5.000000e+00
    9055,   -1.071429e+02,   -1.937500e+02,    5.000000e+00
    9056,   -1.130952e+02,   -1.875000e+02,    5.000000e+00
    9057,   -1.190476e+02,   -1.937500e+02,    5.000000e+00
    9058,   -1.250000e+02,   -1.875000e+02,    5.000000e+00
    9059,   -1.309524e+02,   -1.937500e+02,    5.000000e+00
    9060,   -1.369048e+02,   -1.875000e+02,    5.000000e+00
    9061,   -1.428571e+02,   -1.937500e+02,    5.000000e+00
    9062,   -1.488095e+02,   -1.875000e+02,    5.000000e+00
    9063,   -1.547619e+02,   -1.937500e+02,    5.000000e+00
    9064,   -1.607143e+02,   -1.875000e+02,    5.000000e+00
    9065,   -1.666667e+02,   -1.937500e+02,    5.000000e+00
    9066,   -1.726190e+02,   -1.875000e+02,    5.000000e+00
    9067,   -1.785714e+02,   -1.937500e+02,    5.000000e+00
    9068,   -1.845238e+02,   -1.875000e+02,    5.000000e+00
    9069,   -1.904762e+02,   -1.937500e+02,    5.000000e+00
    9070,   -1.964286e+02,   -1.875000e+02,    5.000000e+00
    9071,   -2.023810e+02,   -1.937500e+02,    5.000000e+00
    9072,   -2.083333e+02,   -1.875000e+02,    5.000000e+00
    9073,   -2.142857e+02,   -1.937500e+02,    5.000000e+00
    9074,   -2.202381e+02,   -1.875000e+02,    5.000000e+00
    9075,   -2.261905e+02,   -1.937500e+02,    5.000000e+00
    9076,   -2.321429e+02,   -1.875000e+02,    5.000000e+00
    9077,   -2.380952e+02,   -1.937500e+02,    5.000000e+00
    9078,   -2.440476e+02,   -1.875000e+02,    5.000000e+00
    9079,   -5.952381e+00,   -1.750000e+02,    5.000000e+00
    9080,   -1.190476e+01,   -1.812500e+02,    5.000000e+00
    9081,   -1.785714e+01,   -1.750000e+02,    5.000000e+00
    9082,   -2.380952e+01,   -1.812500e+02,    5.000000e+00
    9083,   -2.976190e+01,   -1.750000e+02,    5.000000e+00
    9084,   -3.571429e+01,   -1.812500e+02,    5.000000e+00
    9085,   -4.166667e+01,   -1.750000e+02,    5.000000e+00
    9086,   -4.761905e+01,   -1.812500e+02,    5.000000e+00
    9087,   -5.357143e+01,   -1.750000e+02,    5.000000e+00
    9088,   -5.952381e+01,   -1.812500e+02,    5.000000e+00
    9089,   -6.547619e+01,   -1.750000e+02,    5.000000e+00
    9090,   -7.142857e+01,   -1.812500e+02,    5.000000e+00
    9091,   -7.738095e+01,   -1.750000e+02,    5.000000e+00
    9092,   -8.333333e+01,   -1.812500e+02,    5.000000e+00
    9093,   -8.928571e+01,   -1.750000e+02,    5.000000e+00
    9094,   -9.523810e+01,   -1.812500e+02,    5.000000e+00
    9095,   -1.011905e+02,   -1.750000e+02,    5.000000e+00
    9096,   -1.071429e+02,   -1.812500e+02,    5.000000e+00
    9097,   -1.130952e+02,   -1.750000e+02,    5.000000e+00
    9098,   -1.190476e+02,   -1.812500e+02,    5.000000e+00
    9099,   -1.250000e+02,   -1.750000e+02,    5.000000e+00
    9100,   -1.309524e+02,   -1.812500e+02,    5.000000e+00
    9101,   -1.369048e+02,   -1.750000e+02,    5.000000e+00
    9102,   -1.428571e+02,   -1.812500e+02,    5.000000e+00
    9103,   -1.488095e+02,   -1.750000e+02,    5.000000e+00
    9104,   -1.547619e+02,   -1.812500e+02,    5.000000e+00
    9105,   -1.607143e+02,   -1.750000e+02,    5.000000e+00
    9106,   -1.666667e+02,   -1.812500e+02,    5.000000e+00
    9107,   -1.726190e+02,   -1.750000e+02,    5.000000e+00
    9108,   -1.785714e+02,   -1.812500e+02,    5.000000e+00
    9109,   -1.845238e+02,   -1.750000e+02,    5.000000e+00
    9110,   -1.904762e+02,   -1.812500e+02,    5.000000e+00
    9111,   -1.964286e+02,   -1.750000e+02,    5.000000e+00
    9112,   -2.023810e+02,   -1.812500e+02,    5.000000e+00
    9113,   -2.083333e+02,   -1.750000e+02,    5.000000e+00
    9114,   -2.142857e+02,   -1.812500e+02,    5.000000e+00
    9115,   -2.202381e+02,   -1.750000e+02,    5.000000e+00
    9116,   -2.261905e+02,   -1.812500e+02,    5.000000e+00
    9117,   -2.321429e+02,   -1.750000e+02,    5.000000e+00
    9118,   -2.380952e+02,   -1.812500e+02,    5.000000e+00
    9119,   -2.440476e+02,   -1.750000e+02,    5.000000e+00
    9120,   -5.952381e+00,   -1.625000e+02,    5.000000e+00
    9121,   -1.190476e+01,   -1.687500e+02,    5.000000e+00
    9122,   -1.785714e+01,   -1.625000e+02,    5.000000e+00
    9123,   -2.380952e+01,   -1.687500e+02,    5.000000e+00
    9124,   -2.976190e+01,   -1.625000e+02,    5.000000e+00
    9125,   -3.571429e+01,   -1.687500e+02,    5.000000e+00
    9126,   -4.166667e+01,   -1.625000e+02,    5.000000e+00
    9127,   -4.761905e+01,   -1.687500e+02,    5.000000e+00
    9128,   -5.357143e+01,   -1.625000e+02,    5.000000e+00
    9129,   -5.952381e+01,   -1.687500e+02,    5.000000e+00
    9130,   -6.547619e+01,   -1.625000e+02,    5.000000e+00
    9131,   -7.142857e+01,   -1.687500e+02,    5.000000e+00
    9132,   -7.738095e+01,   -1.625000e+02,    5.000000e+00
    9133,   -8.333333e+01,   -1.687500e+02,    5.000000e+00
    9134,   -8.928571e+01,   -1.625000e+02,    5.000000e+00
    9135,   -9.523810e+01,   -1.687500e+02,    5.000000e+00
    9136,   -1.011905e+02,   -1.625000e+02,    5.000000e+00
    9137,   -1.071429e+02,   -1.687500e+02,    5.000000e+00
    9138,   -1.130952e+02,   -1.625000e+02,    5.000000e+00
    9139,   -1.190476e+02,   -1.687500e+02,    5.000000e+00
    9140,   -1.250000e+02,   -1.625000e+02,    5.000000e+00
    9141,   -1.309524e+02,   -1.687500e+02,    5.000000e+00
    9142,   -1.369048e+02,   -1.625000e+02,    5.000000e+00
    9143,   -1.428571e+02,   -1.687500e+02,    5.000000e+00
    9144,   -1.488095e+02,   -1.625000e+02,    5.000000e+00
    9145,   -1.547619e+02,   -1.687500e+02,    5.000000e+00
    9146,   -1.607143e+02,   -1.625000e+02,    5.000000e+00
    9147,   -1.666667e+02,   -1.687500e+02,    5.000000e+00
    9148,   -1.726190e+02,   -1.625000e+02,    5.000000e+00
    9149,   -1.785714e+02,   -1.687500e+02,    5.000000e+00
    9150,   -1.845238e+02,   -1.625000e+02,    5.000000e+00
    9151,   -1.904762e+02,   -1.687500e+02,    5.000000e+00
    9152,   -1.964286e+02,   -1.625000e+02,    5.000000e+00
    9153,   -2.023810e+02,   -1.687500e+02,    5.000000e+00
    9154,   -2.083333e+02,   -1.625000e+02,    5.000000e+00
    9155,   -2.142857e+02,   -1.687500e+02,    5.000000e+00
    9156,   -2.202381e+02,   -1.625000e+02,    5.000000e+00
    9157,   -2.261905e+02,   -1.687500e+02,    5.000000e+00
    9158,   -2.321429e+02,   -1.625000e+02,    5.000000e+00
    9159,   -2.380952e+02,   -1.687500e+02,    5.000000e+00
    9160,   -2.440476e+02,   -1.625000e+02,    5.000000e+00
    9161,   -1.190476e+01,   -1.562500e+02,    5.000000e+00
    9162,   -2.380952e+01,   -1.562500e+02,    5.000000e+00
    9163,   -3.571429e+01,   -1.562500e+02,    5.000000e+00
    9164,   -4.761905e+01,   -1.562500e+02,    5.000000e+00
    9165,   -5.952381e+01,   -1.562500e+02,    5.000000e+00
    9166,   -7.142857e+01,   -1.562500e+02,    5.000000e+00
    9167,   -8.333333e+01,   -1.562500e+02,    5.000000e+00
    9168,   -9.523810e+01,   -1.562500e+02,    5.000000e+00
    9169,   -1.071429e+02,   -1.562500e+02,    5.000000e+00
    9170,   -1.190476e+02,   -1.562500e+02,    5.000000e+00
    9171,   -1.309524e+02,   -1.562500e+02,    5.000000e+00
    9172,   -1.428571e+02,   -1.562500e+02,    5.000000e+00
    9173,   -1.547619e+02,   -1.562500e+02,    5.000000e+00
    9174,   -1.666667e+02,   -1.562500e+02,    5.000000e+00
    9175,   -1.785714e+02,   -1.562500e+02,    5.000000e+00
    9176,   -1.904762e+02,   -1.562500e+02,    5.000000e+00
    9177,   -2.023810e+02,   -1.562500e+02,    5.000000e+00
    9178,   -2.142857e+02,   -1.562500e+02,    5.000000e+00
    9179,   -2.261905e+02,   -1.562500e+02,    5.000000e+00
    9180,   -2.380952e+02,   -1.562500e+02,    5.000000e+00
    9181,   -2.500000e+02,   -2.437500e+02,   -5.000000e+00
    9182,   -2.500000e+02,   -2.312500e+02,   -5.000000e+00
    9183,   -2.500000e+02,   -2.187500e+02,   -5.000000e+00
    9184,   -2.500000e+02,   -2.062500e+02,   -5.000000e+00
    9185,   -2.500000e+02,   -1.937500e+02,   -5.000000e+00
    9186,   -2.500000e+02,   -1.812500e+02,   -5.000000e+00
    9187,   -2.500000e+02,   -1.687500e+02,   -5.000000e+00
    9188,   -2.500000e+02,   -1.562500e+02,   -5.000000e+00
    9189,   -2.500000e+02,   -2.500000e+02,    0.000000e+00
    9190,   -2.500000e+02,   -1.625000e+02,    0.000000e+00
    9191,   -2.500000e+02,   -1.750000e+02,    0.000000e+00
    9192,   -2.500000e+02,   -1.875000e+02,    0.000000e+00
    9193,   -2.500000e+02,   -2.000000e+02,    0.000000e+00
    9194,   -2.500000e+02,   -2.125000e+02,    0.000000e+00
    9195,   -2.500000e+02,   -2.250000e+02,    0.000000e+00
    9196,   -2.500000e+02,   -2.375000e+02,    0.000000e+00
    9197,   -5.952381e+00,   -2.500000e+02,   -5.000000e+00
    9198,   -1.785714e+01,   -2.500000e+02,   -5.000000e+00
    9199,   -2.976190e+01,   -2.500000e+02,   -5.000000e+00
    9200,   -4.166667e+01,   -2.500000e+02,   -5.000000e+00
    9201,   -5.357143e+01,   -2.500000e+02,   -5.000000e+00
    9202,   -6.547619e+01,   -2.500000e+02,   -5.000000e+00
    9203,   -7.738095e+01,   -2.500000e+02,   -5.000000e+00
    9204,   -8.928571e+01,   -2.500000e+02,   -5.000000e+00
    9205,   -1.011905e+02,   -2.500000e+02,   -5.000000e+00
    9206,   -1.130952e+02,   -2.500000e+02,   -5.000000e+00
    9207,   -1.250000e+02,   -2.500000e+02,   -5.000000e+00
    9208,   -1.369048e+02,   -2.500000e+02,   -5.000000e+00
    9209,   -1.488095e+02,   -2.500000e+02,   -5.000000e+00
    9210,   -1.607143e+02,   -2.500000e+02,   -5.000000e+00
    9211,   -1.726190e+02,   -2.500000e+02,   -5.000000e+00
    9212,   -1.845238e+02,   -2.500000e+02,   -5.000000e+00
    9213,   -1.964286e+02,   -2.500000e+02,   -5.000000e+00
    9214,   -2.083333e+02,   -2.500000e+02,   -5.000000e+00
    9215,   -2.202381e+02,   -2.500000e+02,   -5.000000e+00
    9216,   -2.321429e+02,   -2.500000e+02,   -5.000000e+00
    9217,   -2.440476e+02,   -2.500000e+02,   -5.000000e+00
    9218,   -2.380952e+02,   -1.562500e+02,   -5.000000e+00
    9219,   -2.440476e+02,   -1.625000e+02,   -5.000000e+00
    9220,   -2.261905e+02,   -1.562500e+02,   -5.000000e+00
    9221,   -2.321429e+02,   -1.625000e+02,   -5.000000e+00
    9222,   -2.142857e+02,   -1.562500e+02,   -5.000000e+00
    9223,   -2.202381e+02,   -1.625000e+02,   -5.000000e+00
    9224,   -2.023810e+02,   -1.562500e+02,   -5.000000e+00
    9225,   -2.083333e+02,   -1.625000e+02,   -5.000000e+00
    9226,   -1.904762e+02,   -1.562500e+02,   -5.000000e+00
    9227,   -1.964286e+02,   -1.625000e+02,   -5.000000e+00
    9228,   -1.785714e+02,   -1.562500e+02,   -5.000000e+00
    9229,   -1.845238e+02,   -1.625000e+02,   -5.000000e+00
    9230,   -1.666667e+02,   -1.562500e+02,   -5.000000e+00
    9231,   -1.726190e+02,   -1.625000e+02,   -5.000000e+00
    9232,   -1.547619e+02,   -1.562500e+02,   -5.000000e+00
    9233,   -1.607143e+02,   -1.625000e+02,   -5.000000e+00
    9234,   -1.428571e+02,   -1.562500e+02,   -5.000000e+00
    9235,   -1.488095e+02,   -1.625000e+02,   -5.000000e+00
    9236,   -1.309524e+02,   -1.562500e+02,   -5.000000e+00
    9237,   -1.369048e+02,   -1.625000e+02,   -5.000000e+00
    9238,   -1.190476e+02,   -1.562500e+02,   -5.000000e+00
    9239,   -1.250000e+02,   -1.625000e+02,   -5.000000e+00
    9240,   -1.071429e+02,   -1.562500e+02,   -5.000000e+00
    9241,   -1.130952e+02,   -1.625000e+02,   -5.000000e+00
    9242,   -9.523810e+01,   -1.562500e+02,   -5.000000e+00
    9243,   -1.011905e+02,   -1.625000e+02,   -5.000000e+00
    9244,   -8.333333e+01,   -1.562500e+02,   -5.000000e+00
    9245,   -8.928571e+01,   -1.625000e+02,   -5.000000e+00
    9246,   -7.142857e+01,   -1.562500e+02,   -5.000000e+00
    9247,   -7.738095e+01,   -1.625000e+02,   -5.000000e+00
    9248,   -5.952381e+01,   -1.562500e+02,   -5.000000e+00
    9249,   -6.547619e+01,   -1.625000e+02,   -5.000000e+00
    9250,   -4.761905e+01,   -1.562500e+02,   -5.000000e+00
    9251,   -5.357143e+01,   -1.625000e+02,   -5.000000e+00
    9252,   -3.571429e+01,   -1.562500e+02,   -5.000000e+00
    9253,   -4.166667e+01,   -1.625000e+02,   -5.000000e+00
    9254,   -2.380952e+01,   -1.562500e+02,   -5.000000e+00
    9255,   -2.976190e+01,   -1.625000e+02,   -5.000000e+00
    9256,   -1.190476e+01,   -1.562500e+02,   -5.000000e+00
    9257,   -1.785714e+01,   -1.625000e+02,   -5.000000e+00
    9258,   -5.952381e+00,   -1.625000e+02,   -5.000000e+00
    9259,   -2.380952e+02,   -1.687500e+02,   -5.000000e+00
    9260,   -2.440476e+02,   -1.750000e+02,   -5.000000e+00
    9261,   -2.261905e+02,   -1.687500e+02,   -5.000000e+00
    9262,   -2.321429e+02,   -1.750000e+02,   -5.000000e+00
    9263,   -2.142857e+02,   -1.687500e+02,   -5.000000e+00
    9264,   -2.202381e+02,   -1.750000e+02,   -5.000000e+00
    9265,   -2.023810e+02,   -1.687500e+02,   -5.000000e+00
    9266,   -2.083333e+02,   -1.750000e+02,   -5.000000e+00
    9267,   -1.904762e+02,   -1.687500e+02,   -5.000000e+00
    9268,   -1.964286e+02,   -1.750000e+02,   -5.000000e+00
    9269,   -1.785714e+02,   -1.687500e+02,   -5.000000e+00
    9270,   -1.845238e+02,   -1.750000e+02,   -5.000000e+00
    9271,   -1.666667e+02,   -1.687500e+02,   -5.000000e+00
    9272,   -1.726190e+02,   -1.750000e+02,   -5.000000e+00
    9273,   -1.547619e+02,   -1.687500e+02,   -5.000000e+00
    9274,   -1.607143e+02,   -1.750000e+02,   -5.000000e+00
    9275,   -1.428571e+02,   -1.687500e+02,   -5.000000e+00
    9276,   -1.488095e+02,   -1.750000e+02,   -5.000000e+00
    9277,   -1.309524e+02,   -1.687500e+02,   -5.000000e+00
    9278,   -1.369048e+02,   -1.750000e+02,   -5.000000e+00
    9279,   -1.190476e+02,   -1.687500e+02,   -5.000000e+00
    9280,   -1.250000e+02,   -1.750000e+02,   -5.000000e+00
    9281,   -1.071429e+02,   -1.687500e+02,   -5.000000e+00
    9282,   -1.130952e+02,   -1.750000e+02,   -5.000000e+00
    9283,   -9.523810e+01,   -1.687500e+02,   -5.000000e+00
    9284,   -1.011905e+02,   -1.750000e+02,   -5.000000e+00
    9285,   -8.333333e+01,   -1.687500e+02,   -5.000000e+00
    9286,   -8.928571e+01,   -1.750000e+02,   -5.000000e+00
    9287,   -7.142857e+01,   -1.687500e+02,   -5.000000e+00
    9288,   -7.738095e+01,   -1.750000e+02,   -5.000000e+00
    9289,   -5.952381e+01,   -1.687500e+02,   -5.000000e+00
    9290,   -6.547619e+01,   -1.750000e+02,   -5.000000e+00
    9291,   -4.761905e+01,   -1.687500e+02,   -5.000000e+00
    9292,   -5.357143e+01,   -1.750000e+02,   -5.000000e+00
    9293,   -3.571429e+01,   -1.687500e+02,   -5.000000e+00
    9294,   -4.166667e+01,   -1.750000e+02,   -5.000000e+00
    9295,   -2.380952e+01,   -1.687500e+02,   -5.000000e+00
    9296,   -2.976190e+01,   -1.750000e+02,   -5.000000e+00
    9297,   -1.190476e+01,   -1.687500e+02,   -5.000000e+00
    9298,   -1.785714e+01,   -1.750000e+02,   -5.000000e+00
    9299,   -5.952381e+00,   -1.750000e+02,   -5.000000e+00
    9300,   -2.380952e+02,   -1.812500e+02,   -5.000000e+00
    9301,   -2.440476e+02,   -1.875000e+02,   -5.000000e+00
    9302,   -2.261905e+02,   -1.812500e+02,   -5.000000e+00
    9303,   -2.321429e+02,   -1.875000e+02,   -5.000000e+00
    9304,   -2.142857e+02,   -1.812500e+02,   -5.000000e+00
    9305,   -2.202381e+02,   -1.875000e+02,   -5.000000e+00
    9306,   -2.023810e+02,   -1.812500e+02,   -5.000000e+00
    9307,   -2.083333e+02,   -1.875000e+02,   -5.000000e+00
    9308,   -1.904762e+02,   -1.812500e+02,   -5.000000e+00
    9309,   -1.964286e+02,   -1.875000e+02,   -5.000000e+00
    9310,   -1.785714e+02,   -1.812500e+02,   -5.000000e+00
    9311,   -1.845238e+02,   -1.875000e+02,   -5.000000e+00
    9312,   -1.666667e+02,   -1.812500e+02,   -5.000000e+00
    9313,   -1.726190e+02,   -1.875000e+02,   -5.000000e+00
    9314,   -1.547619e+02,   -1.812500e+02,   -5.000000e+00
    9315,   -1.607143e+02,   -1.875000e+02,   -5.000000e+00
    9316,   -1.428571e+02,   -1.812500e+02,   -5.000000e+00
    9317,   -1.488095e+02,   -1.875000e+02,   -5.000000e+00
    9318,   -1.309524e+02,   -1.812500e+02,   -5.000000e+00
    9319,   -1.369048e+02,   -1.875000e+02,   -5.000000e+00
    9320,   -1.190476e+02,   -1.812500e+02,   -5.000000e+00
    9321,   -1.250000e+02,   -1.875000e+02,   -5.000000e+00
    9322,   -1.071429e+02,   -1.812500e+02,   -5.000000e+00
    9323,   -1.130952e+02,   -1.875000e+02,   -5.000000e+00
    9324,   -9.523810e+01,   -1.812500e+02,   -5.000000e+00
    9325,   -1.011905e+02,   -1.875000e+02,   -5.000000e+00
    9326,   -8.333333e+01,   -1.812500e+02,   -5.000000e+00
    9327,   -8.928571e+01,   -1.875000e+02,   -5.000000e+00
    9328,   -7.142857e+01,   -1.812500e+02,   -5.000000e+00
    9329,   -7.738095e+01,   -1.875000e+02,   -5.000000e+00
    9330,   -5.952381e+01,   -1.812500e+02,   -5.000000e+00
    9331,   -6.547619e+01,   -1.875000e+02,   -5.000000e+00
    9332,   -4.761905e+01,   -1.812500e+02,   -5.000000e+00
    9333,   -5.357143e+01,   -1.875000e+02,   -5.000000e+00
    9334,   -3.571429e+01,   -1.812500e+02,   -5.000000e+00
    9335,   -4.166667e+01,   -1.875000e+02,   -5.000000e+00
    9336,   -2.380952e+01,   -1.812500e+02,   -5.000000e+00
    9337,   -2.976190e+01,   -1.875000e+02,   -5.000000e+00
    9338,   -1.190476e+01,   -1.812500e+02,   -5.000000e+00
    9339,   -1.785714e+01,   -1.875000e+02,   -5.000000e+00
    9340,   -5.952381e+00,   -1.875000e+02,   -5.000000e+00
    9341,   -2.380952e+02,   -1.937500e+02,   -5.000000e+00
    9342,   -2.440476e+02,   -2.000000e+02,   -5.000000e+00
    9343,   -2.261905e+02,   -1.937500e+02,   -5.000000e+00
    9344,   -2.321429e+02,   -2.000000e+02,   -5.000000e+00
    9345,   -2.142857e+02,   -1.937500e+02,   -5.000000e+00
    9346,   -2.202381e+02,   -2.000000e+02,   -5.000000e+00
    9347,   -2.023810e+02,   -1.937500e+02,   -5.000000e+00
    9348,   -2.083333e+02,   -2.000000e+02,   -5.000000e+00
    9349,   -1.904762e+02,   -1.937500e+02,   -5.000000e+00
    9350,   -1.964286e+02,   -2.000000e+02,   -5.000000e+00
    9351,   -1.785714e+02,   -1.937500e+02,   -5.000000e+00
    9352,   -1.845238e+02,   -2.000000e+02,   -5.000000e+00
    9353,   -1.666667e+02,   -1.937500e+02,   -5.000000e+00
    9354,   -1.726190e+02,   -2.000000e+02,   -5.000000e+00
    9355,   -1.547619e+02,   -1.937500e+02,   -5.000000e+00
    9356,   -1.607143e+02,   -2.000000e+02,   -5.000000e+00
    9357,   -1.428571e+02,   -1.937500e+02,   -5.000000e+00
    9358,   -1.488095e+02,   -2.000000e+02,   -5.000000e+00
    9359,   -1.309524e+02,   -1.937500e+02,   -5.000000e+00
    9360,   -1.369048e+02,   -2.000000e+02,   -5.000000e+00
    9361,   -1.190476e+02,   -1.937500e+02,   -5.000000e+00
    9362,   -1.250000e+02,   -2.000000e+02,   -5.000000e+00
    9363,   -1.071429e+02,   -1.937500e+02,   -5.000000e+00
    9364,   -1.130952e+02,   -2.000000e+02,   -5.000000e+00
    9365,   -9.523810e+01,   -1.937500e+02,   -5.000000e+00
    9366,   -1.011905e+02,   -2.000000e+02,   -5.000000e+00
    9367,   -8.333333e+01,   -1.937500e+02,   -5.000000e+00
    9368,   -8.928571e+01,   -2.000000e+02,   -5.000000e+00
    9369,   -7.142857e+01,   -1.937500e+02,   -5.000000e+00
    9370,   -7.738095e+01,   -2.000000e+02,   -5.000000e+00
    9371,   -5.952381e+01,   -1.937500e+02,   -5.000000e+00
    9372,   -6.547619e+01,   -2.000000e+02,   -5.000000e+00
    9373,   -4.761905e+01,   -1.937500e+02,   -5.000000e+00
    9374,   -5.357143e+01,   -2.000000e+02,   -5.000000e+00
    9375,   -3.571429e+01,   -1.937500e+02,   -5.000000e+00
    9376,   -4.166667e+01,   -2.000000e+02,   -5.000000e+00
    9377,   -2.380952e+01,   -1.937500e+02,   -5.000000e+00
    9378,   -2.976190e+01,   -2.000000e+02,   -5.000000e+00
    9379,   -1.190476e+01,   -1.937500e+02,   -5.000000e+00
    9380,   -1.785714e+01,   -2.000000e+02,   -5.000000e+00
    9381,   -5.952381e+00,   -2.000000e+02,   -5.000000e+00
    9382,   -2.380952e+02,   -2.062500e+02,   -5.000000e+00
    9383,   -2.440476e+02,   -2.125000e+02,   -5.000000e+00
    9384,   -2.261905e+02,   -2.062500e+02,   -5.000000e+00
    9385,   -2.321429e+02,   -2.125000e+02,   -5.000000e+00
    9386,   -2.142857e+02,   -2.062500e+02,   -5.000000e+00
    9387,   -2.202381e+02,   -2.125000e+02,   -5.000000e+00
    9388,   -2.023810e+02,   -2.062500e+02,   -5.000000e+00
    9389,   -2.083333e+02,   -2.125000e+02,   -5.000000e+00
    9390,   -1.904762e+02,   -2.062500e+02,   -5.000000e+00
    9391,   -1.964286e+02,   -2.125000e+02,   -5.000000e+00
    9392,   -1.785714e+02,   -2.062500e+02,   -5.000000e+00
    9393,   -1.845238e+02,   -2.125000e+02,   -5.000000e+00
    9394,   -1.666667e+02,   -2.062500e+02,   -5.000000e+00
    9395,   -1.726190e+02,   -2.125000e+02,   -5.000000e+00
    9396,   -1.547619e+02,   -2.062500e+02,   -5.000000e+00
    9397,   -1.607143e+02,   -2.125000e+02,   -5.000000e+00
    9398,   -1.428571e+02,   -2.062500e+02,   -5.000000e+00
    9399,   -1.488095e+02,   -2.125000e+02,   -5.000000e+00
    9400,   -1.309524e+02,   -2.062500e+02,   -5.000000e+00
    9401,   -1.369048e+02,   -2.125000e+02,   -5.000000e+00
    9402,   -1.190476e+02,   -2.062500e+02,   -5.000000e+00
    9403,   -1.250000e+02,   -2.125000e+02,   -5.000000e+00
    9404,   -1.071429e+02,   -2.062500e+02,   -5.000000e+00
    9405,   -1.130952e+02,   -2.125000e+02,   -5.000000e+00
    9406,   -9.523810e+01,   -2.062500e+02,   -5.000000e+00
    9407,   -1.011905e+02,   -2.125000e+02,   -5.000000e+00
    9408,   -8.333333e+01,   -2.062500e+02,   -5.000000e+00
    9409,   -8.928571e+01,   -2.125000e+02,   -5.000000e+00
    9410,   -7.142857e+01,   -2.062500e+02,   -5.000000e+00
    9411,   -7.738095e+01,   -2.125000e+02,   -5.000000e+00
    9412,   -5.952381e+01,   -2.062500e+02,   -5.000000e+00
    9413,   -6.547619e+01,   -2.125000e+02,   -5.000000e+00
    9414,   -4.761905e+01,   -2.062500e+02,   -5.000000e+00
    9415,   -5.357143e+01,   -2.125000e+02,   -5.000000e+00
    9416,   -3.571429e+01,   -2.062500e+02,   -5.000000e+00
    9417,   -4.166667e+01,   -2.125000e+02,   -5.000000e+00
    9418,   -2.380952e+01,   -2.062500e+02,   -5.000000e+00
    9419,   -2.976190e+01,   -2.125000e+02,   -5.000000e+00
    9420,   -1.190476e+01,   -2.062500e+02,   -5.000000e+00
    9421,   -1.785714e+01,   -2.125000e+02,   -5.000000e+00
    9422,   -5.952381e+00,   -2.125000e+02,   -5.000000e+00
    9423,   -2.380952e+02,   -2.187500e+02,   -5.000000e+00
    9424,   -2.440476e+02,   -2.250000e+02,   -5.000000e+00
    9425,   -2.261905e+02,   -2.187500e+02,   -5.000000e+00
    9426,   -2.321429e+02,   -2.250000e+02,   -5.000000e+00
    9427,   -2.142857e+02,   -2.187500e+02,   -5.000000e+00
    9428,   -2.202381e+02,   -2.250000e+02,   -5.000000e+00
    9429,   -2.023810e+02,   -2.187500e+02,   -5.000000e+00
    9430,   -2.083333e+02,   -2.250000e+02,   -5.000000e+00
    9431,   -1.904762e+02,   -2.187500e+02,   -5.000000e+00
    9432,   -1.964286e+02,   -2.250000e+02,   -5.000000e+00
    9433,   -1.785714e+02,   -2.187500e+02,   -5.000000e+00
    9434,   -1.845238e+02,   -2.250000e+02,   -5.000000e+00
    9435,   -1.666667e+02,   -2.187500e+02,   -5.000000e+00
    9436,   -1.726190e+02,   -2.250000e+02,   -5.000000e+00
    9437,   -1.547619e+02,   -2.187500e+02,   -5.000000e+00
    9438,   -1.607143e+02,   -2.250000e+02,   -5.000000e+00
    9439,   -1.428571e+02,   -2.187500e+02,   -5.000000e+00
    9440,   -1.488095e+02,   -2.250000e+02,   -5.000000e+00
    9441,   -1.309524e+02,   -2.187500e+02,   -5.000000e+00
    9442,   -1.369048e+02,   -2.250000e+02,   -5.000000e+00
    9443,   -1.190476e+02,   -2.187500e+02,   -5.000000e+00
    9444,   -1.250000e+02,   -2.250000e+02,   -5.000000e+00
    9445,   -1.071429e+02,   -2.187500e+02,   -5.000000e+00
    9446,   -1.130952e+02,   -2.250000e+02,   -5.000000e+00
    9447,   -9.523810e+01,   -2.187500e+02,   -5.000000e+00
    9448,   -1.011905e+02,   -2.250000e+02,   -5.000000e+00
    9449,   -8.333333e+01,   -2.187500e+02,   -5.000000e+00
    9450,   -8.928571e+01,   -2.250000e+02,   -5.000000e+00
    9451,   -7.142857e+01,   -2.187500e+02,   -5.000000e+00
    9452,   -7.738095e+01,   -2.250000e+02,   -5.000000e+00
    9453,   -5.952381e+01,   -2.187500e+02,   -5.000000e+00
    9454,   -6.547619e+01,   -2.250000e+02,   -5.000000e+00
    9455,   -4.761905e+01,   -2.187500e+02,   -5.000000e+00
    9456,   -5.357143e+01,   -2.250000e+02,   -5.000000e+00
    9457,   -3.571429e+01,   -2.187500e+02,   -5.000000e+00
    9458,   -4.166667e+01,   -2.250000e+02,   -5.000000e+00
    9459,   -2.380952e+01,   -2.187500e+02,   -5.000000e+00
    9460,   -2.976190e+01,   -2.250000e+02,   -5.000000e+00
    9461,   -1.190476e+01,   -2.187500e+02,   -5.000000e+00
    9462,   -1.785714e+01,   -2.250000e+02,   -5.000000e+00
    9463,   -5.952381e+00,   -2.250000e+02,   -5.000000e+00
    9464,   -2.380952e+02,   -2.312500e+02,   -5.000000e+00
    9465,   -2.440476e+02,   -2.375000e+02,   -5.000000e+00
    9466,   -2.261905e+02,   -2.312500e+02,   -5.000000e+00
    9467,   -2.321429e+02,   -2.375000e+02,   -5.000000e+00
    9468,   -2.142857e+02,   -2.312500e+02,   -5.000000e+00
    9469,   -2.202381e+02,   -2.375000e+02,   -5.000000e+00
    9470,   -2.023810e+02,   -2.312500e+02,   -5.000000e+00
    9471,   -2.083333e+02,   -2.375000e+02,   -5.000000e+00
    9472,   -1.904762e+02,   -2.312500e+02,   -5.000000e+00
    9473,   -1.964286e+02,   -2.375000e+02,   -5.000000e+00
    9474,   -1.785714e+02,   -2.312500e+02,   -5.000000e+00
    9475,   -1.845238e+02,   -2.375000e+02,   -5.000000e+00
    9476,   -1.666667e+02,   -2.312500e+02,   -5.000000e+00
    9477,   -1.726190e+02,   -2.375000e+02,   -5.000000e+00
    9478,   -1.547619e+02,   -2.312500e+02,   -5.000000e+00
    9479,   -1.607143e+02,   -2.375000e+02,   -5.000000e+00
    9480,   -1.428571e+02,   -2.312500e+02,   -5.000000e+00
    9481,   -1.488095e+02,   -2.375000e+02,   -5.000000e+00
    9482,   -1.309524e+02,   -2.312500e+02,   -5.000000e+00
    9483,   -1.369048e+02,   -2.375000e+02,   -5.000000e+00
    9484,   -1.190476e+02,   -2.312500e+02,   -5.000000e+00
    9485,   -1.250000e+02,   -2.375000e+02,   -5.000000e+00
    9486,   -1.071429e+02,   -2.312500e+02,   -5.000000e+00
    9487,   -1.130952e+02,   -2.375000e+02,   -5.000000e+00
    9488,   -9.523810e+01,   -2.312500e+02,   -5.000000e+00
    9489,   -1.011905e+02,   -2.375000e+02,   -5.000000e+00
    9490,   -8.333333e+01,   -2.312500e+02,   -5.000000e+00
    9491,   -8.928571e+01,   -2.375000e+02,   -5.000000e+00
    9492,   -7.142857e+01,   -2.312500e+02,   -5.000000e+00
    9493,   -7.738095e+01,   -2.375000e+02,   -5.000000e+00
    9494,   -5.952381e+01,   -2.312500e+02,   -5.000000e+00
    9495,   -6.547619e+01,   -2.375000e+02,   -5.000000e+00
    9496,   -4.761905e+01,   -2.312500e+02,   -5.000000e+00
    9497,   -5.357143e+01,   -2.375000e+02,   -5.000000e+00
    9498,   -3.571429e+01,   -2.312500e+02,   -5.000000e+00
    9499,   -4.166667e+01,   -2.375000e+02,   -5.000000e+00
    9500,   -2.380952e+01,   -2.312500e+02,   -5.000000e+00
    9501,   -2.976190e+01,   -2.375000e+02,   -5.000000e+00
    9502,   -1.190476e+01,   -2.312500e+02,   -5.000000e+00
    9503,   -1.785714e+01,   -2.375000e+02,   -5.000000e+00
    9504,   -5.952381e+00,   -2.375000e+02,   -5.000000e+00
    9505,   -2.380952e+02,   -2.437500e+02,   -5.000000e+00
    9506,   -2.261905e+02,   -2.437500e+02,   -5.000000e+00
    9507,   -2.142857e+02,   -2.437500e+02,   -5.000000e+00
    9508,   -2.023810e+02,   -2.437500e+02,   -5.000000e+00
    9509,   -1.904762e+02,   -2.437500e+02,   -5.000000e+00
    9510,   -1.785714e+02,   -2.437500e+02,   -5.000000e+00
    9511,   -1.666667e+02,   -2.437500e+02,   -5.000000e+00
    9512,   -1.547619e+02,   -2.437500e+02,   -5.000000e+00
    9513,   -1.428571e+02,   -2.437500e+02,   -5.000000e+00
    9514,   -1.309524e+02,   -2.437500e+02,   -5.000000e+00
    9515,   -1.190476e+02,   -2.437500e+02,   -5.000000e+00
    9516,   -1.071429e+02,   -2.437500e+02,   -5.000000e+00
    9517,   -9.523810e+01,   -2.437500e+02,   -5.000000e+00
    9518,   -8.333333e+01,   -2.437500e+02,   -5.000000e+00
    9519,   -7.142857e+01,   -2.437500e+02,   -5.000000e+00
    9520,   -5.952381e+01,   -2.437500e+02,   -5.000000e+00
    9521,   -4.761905e+01,   -2.437500e+02,   -5.000000e+00
    9522,   -3.571429e+01,   -2.437500e+02,   -5.000000e+00
    9523,   -2.380952e+01,   -2.437500e+02,   -5.000000e+00
    9524,   -1.190476e+01,   -2.437500e+02,   -5.000000e+00
    9525,   -1.190476e+01,   -2.500000e+02,    0.000000e+00
    9526,   -2.380952e+01,   -2.500000e+02,    0.000000e+00
    9527,   -3.571429e+01,   -2.500000e+02,    0.000000e+00
    9528,   -4.761905e+01,   -2.500000e+02,    0.000000e+00
    9529,   -5.952381e+01,   -2.500000e+02,    0.000000e+00
    9530,   -7.142857e+01,   -2.500000e+02,    0.000000e+00
    9531,   -8.333333e+01,   -2.500000e+02,    0.000000e+00
    9532,   -9.523810e+01,   -2.500000e+02,    0.000000e+00
    9533,   -1.071429e+02,   -2.500000e+02,    0.000000e+00
    9534,   -1.190476e+02,   -2.500000e+02,    0.000000e+00
    9535,   -1.309524e+02,   -2.500000e+02,    0.000000e+00
    9536,   -1.428571e+02,   -2.500000e+02,    0.000000e+00
    9537,   -1.547619e+02,   -2.500000e+02,    0.000000e+00
    9538,   -1.666667e+02,   -2.500000e+02,    0.000000e+00
    9539,   -1.785714e+02,   -2.500000e+02,    0.000000e+00
    9540,   -1.904762e+02,   -2.500000e+02,    0.000000e+00
    9541,   -2.023810e+02,   -2.500000e+02,    0.000000e+00
    9542,   -2.142857e+02,   -2.500000e+02,    0.000000e+00
    9543,   -2.261905e+02,   -2.500000e+02,    0.000000e+00
    9544,   -2.380952e+02,   -2.500000e+02,    0.000000e+00
    9545,   -1.190476e+01,   -2.375000e+02,    0.000000e+00
    9546,   -2.380952e+01,   -2.375000e+02,    0.000000e+00
    9547,   -3.571429e+01,   -2.375000e+02,    0.000000e+00
    9548,   -4.761905e+01,   -2.375000e+02,    0.000000e+00
    9549,   -5.952381e+01,   -2.375000e+02,    0.000000e+00
    9550,   -7.142857e+01,   -2.375000e+02,    0.000000e+00
    9551,   -8.333333e+01,   -2.375000e+02,    0.000000e+00
    9552,   -9.523810e+01,   -2.375000e+02,    0.000000e+00
    9553,   -1.071429e+02,   -2.375000e+02,    0.000000e+00
    9554,   -1.190476e+02,   -2.375000e+02,    0.000000e+00
    9555,   -1.309524e+02,   -2.375000e+02,    0.000000e+00
    9556,   -1.428571e+02,   -2.375000e+02,    0.000000e+00
    9557,   -1.547619e+02,   -2.375000e+02,    0.000000e+00
    9558,   -1.666667e+02,   -2.375000e+02,    0.000000e+00
    9559,   -1.785714e+02,   -2.375000e+02,    0.000000e+00
    9560,   -1.904762e+02,   -2.375000e+02,    0.000000e+00
    9561,   -2.023810e+02,   -2.375000e+02,    0.000000e+00
    9562,   -2.142857e+02,   -2.375000e+02,    0.000000e+00
    9563,   -2.261905e+02,   -2.375000e+02,    0.000000e+00
    9564,   -2.380952e+02,   -2.375000e+02,    0.000000e+00
    9565,   -1.190476e+01,   -2.250000e+02,    0.000000e+00
    9566,   -2.380952e+01,   -2.250000e+02,    0.000000e+00
    9567,   -3.571429e+01,   -2.250000e+02,    0.000000e+00
    9568,   -4.761905e+01,   -2.250000e+02,    0.000000e+00
    9569,   -5.952381e+01,   -2.250000e+02,    0.000000e+00
    9570,   -7.142857e+01,   -2.250000e+02,    0.000000e+00
    9571,   -8.333333e+01,   -2.250000e+02,    0.000000e+00
    9572,   -9.523810e+01,   -2.250000e+02,    0.000000e+00
    9573,   -1.071429e+02,   -2.250000e+02,    0.000000e+00
    9574,   -1.190476e+02,   -2.250000e+02,    0.000000e+00
    9575,   -1.309524e+02,   -2.250000e+02,    0.000000e+00
    9576,   -1.428571e+02,   -2.250000e+02,    0.000000e+00
    9577,   -1.547619e+02,   -2.250000e+02,    0.000000e+00
    9578,   -1.666667e+02,   -2.250000e+02,    0.000000e+00
    9579,   -1.785714e+02,   -2.250000e+02,    0.000000e+00
    9580,   -1.904762e+02,   -2.250000e+02,    0.000000e+00
    9581,   -2.023810e+02,   -2.250000e+02,    0.000000e+00
    9582,   -2.142857e+02,   -2.250000e+02,    0.000000e+00
    9583,   -2.261905e+02,   -2.250000e+02,    0.000000e+00
    9584,   -2.380952e+02,   -2.250000e+02,    0.000000e+00
    9585,   -1.190476e+01,   -2.125000e+02,    0.000000e+00
    9586,   -2.380952e+01,   -2.125000e+02,    0.000000e+00
    9587,   -3.571429e+01,   -2.125000e+02,    0.000000e+00
    9588,   -4.761905e+01,   -2.125000e+02,    0.000000e+00
    9589,   -5.952381e+01,   -2.125000e+02,    0.000000e+00
    9590,   -7.142857e+01,   -2.125000e+02,    0.000000e+00
    9591,   -8.333333e+01,   -2.125000e+02,    0.000000e+00
    9592,   -9.523810e+01,   -2.125000e+02,    0.000000e+00
    9593,   -1.071429e+02,   -2.125000e+02,    0.000000e+00
    9594,   -1.190476e+02,   -2.125000e+02,    0.000000e+00
    9595,   -1.309524e+02,   -2.125000e+02,    0.000000e+00
    9596,   -1.428571e+02,   -2.125000e+02,    0.000000e+00
    9597,   -1.547619e+02,   -2.125000e+02,    0.000000e+00
    9598,   -1.666667e+02,   -2.125000e+02,    0.000000e+00
    9599,   -1.785714e+02,   -2.125000e+02,    0.000000e+00
    9600,   -1.904762e+02,   -2.125000e+02,    0.000000e+00
    9601,   -2.023810e+02,   -2.125000e+02,    0.000000e+00
    9602,   -2.142857e+02,   -2.125000e+02,    0.000000e+00
    9603,   -2.261905e+02,   -2.125000e+02,    0.000000e+00
    9604,   -2.380952e+02,   -2.125000e+02,    0.000000e+00
    9605,   -1.190476e+01,   -2.000000e+02,    0.000000e+00
    9606,   -2.380952e+01,   -2.000000e+02,    0.000000e+00
    9607,   -3.571429e+01,   -2.000000e+02,    0.000000e+00
    9608,   -4.761905e+01,   -2.000000e+02,    0.000000e+00
    9609,   -5.952381e+01,   -2.000000e+02,    0.000000e+00
    9610,   -7.142857e+01,   -2.000000e+02,    0.000000e+00
    9611,   -8.333333e+01,   -2.000000e+02,    0.000000e+00
    9612,   -9.523810e+01,   -2.000000e+02,    0.000000e+00
    9613,   -1.071429e+02,   -2.000000e+02,    0.000000e+00
    9614,   -1.190476e+02,   -2.000000e+02,    0.000000e+00
    9615,   -1.309524e+02,   -2.000000e+02,    0.000000e+00
    9616,   -1.428571e+02,   -2.000000e+02,    0.000000e+00
    9617,   -1.547619e+02,   -2.000000e+02,    0.000000e+00
    9618,   -1.666667e+02,   -2.000000e+02,    0.000000e+00
    9619,   -1.785714e+02,   -2.000000e+02,    0.000000e+00
    9620,   -1.904762e+02,   -2.000000e+02,    0.000000e+00
    9621,   -2.023810e+02,   -2.000000e+02,    0.000000e+00
    9622,   -2.142857e+02,   -2.000000e+02,    0.000000e+00
    9623,   -2.261905e+02,   -2.000000e+02,    0.000000e+00
    9624,   -2.380952e+02,   -2.000000e+02,    0.000000e+00
    9625,   -1.190476e+01,   -1.875000e+02,    0.000000e+00
    9626,   -2.380952e+01,   -1.875000e+02,    0.000000e+00
    9627,   -3.571429e+01,   -1.875000e+02,    0.000000e+00
    9628,   -4.761905e+01,   -1.875000e+02,    0.000000e+00
    9629,   -5.952381e+01,   -1.875000e+02,    0.000000e+00
    9630,   -7.142857e+01,   -1.875000e+02,    0.000000e+00
    9631,   -8.333333e+01,   -1.875000e+02,    0.000000e+00
    9632,   -9.523810e+01,   -1.875000e+02,    0.000000e+00
    9633,   -1.071429e+02,   -1.875000e+02,    0.000000e+00
    9634,   -1.190476e+02,   -1.875000e+02,    0.000000e+00
    9635,   -1.309524e+02,   -1.875000e+02,    0.000000e+00
    9636,   -1.428571e+02,   -1.875000e+02,    0.000000e+00
    9637,   -1.547619e+02,   -1.875000e+02,    0.000000e+00
    9638,   -1.666667e+02,   -1.875000e+02,    0.000000e+00
    9639,   -1.785714e+02,   -1.875000e+02,    0.000000e+00
    9640,   -1.904762e+02,   -1.875000e+02,    0.000000e+00
    9641,   -2.023810e+02,   -1.875000e+02,    0.000000e+00
    9642,   -2.142857e+02,   -1.875000e+02,    0.000000e+00
    9643,   -2.261905e+02,   -1.875000e+02,    0.000000e+00
    9644,   -2.380952e+02,   -1.875000e+02,    0.000000e+00
    9645,   -1.190476e+01,   -1.750000e+02,    0.000000e+00
    9646,   -2.380952e+01,   -1.750000e+02,    0.000000e+00
    9647,   -3.571429e+01,   -1.750000e+02,    0.000000e+00
    9648,   -4.761905e+01,   -1.750000e+02,    0.000000e+00
    9649,   -5.952381e+01,   -1.750000e+02,    0.000000e+00
    9650,   -7.142857e+01,   -1.750000e+02,    0.000000e+00
    9651,   -8.333333e+01,   -1.750000e+02,    0.000000e+00
    9652,   -9.523810e+01,   -1.750000e+02,    0.000000e+00
    9653,   -1.071429e+02,   -1.750000e+02,    0.000000e+00
    9654,   -1.190476e+02,   -1.750000e+02,    0.000000e+00
    9655,   -1.309524e+02,   -1.750000e+02,    0.000000e+00
    9656,   -1.428571e+02,   -1.750000e+02,    0.000000e+00
    9657,   -1.547619e+02,   -1.750000e+02,    0.000000e+00
    9658,   -1.666667e+02,   -1.750000e+02,    0.000000e+00
    9659,   -1.785714e+02,   -1.750000e+02,    0.000000e+00
    9660,   -1.904762e+02,   -1.750000e+02,    0.000000e+00
    9661,   -2.023810e+02,   -1.750000e+02,    0.000000e+00
    9662,   -2.142857e+02,   -1.750000e+02,    0.000000e+00
    9663,   -2.261905e+02,   -1.750000e+02,    0.000000e+00
    9664,   -2.380952e+02,   -1.750000e+02,    0.000000e+00
    9665,   -1.190476e+01,   -1.625000e+02,    0.000000e+00
    9666,   -2.380952e+01,   -1.625000e+02,    0.000000e+00
    9667,   -3.571429e+01,   -1.625000e+02,    0.000000e+00
    9668,   -4.761905e+01,   -1.625000e+02,    0.000000e+00
    9669,   -5.952381e+01,   -1.625000e+02,    0.000000e+00
    9670,   -7.142857e+01,   -1.625000e+02,    0.000000e+00
    9671,   -8.333333e+01,   -1.625000e+02,    0.000000e+00
    9672,   -9.523810e+01,   -1.625000e+02,    0.000000e+00
    9673,   -1.071429e+02,   -1.625000e+02,    0.000000e+00
    9674,   -1.190476e+02,   -1.625000e+02,    0.000000e+00
    9675,   -1.309524e+02,   -1.625000e+02,    0.000000e+00
    9676,   -1.428571e+02,   -1.625000e+02,    0.000000e+00
    9677,   -1.547619e+02,   -1.625000e+02,    0.000000e+00
    9678,   -1.666667e+02,   -1.625000e+02,    0.000000e+00
    9679,   -1.785714e+02,   -1.625000e+02,    0.000000e+00
    9680,   -1.904762e+02,   -1.625000e+02,    0.000000e+00
    9681,   -2.023810e+02,   -1.625000e+02,    0.000000e+00
    9682,   -2.142857e+02,   -1.625000e+02,    0.000000e+00
    9683,   -2.261905e+02,   -1.625000e+02,    0.000000e+00
    9684,   -2.380952e+02,   -1.625000e+02,    0.000000e+00
********************************** E L E M E N T S ****************************
*ELEMENT, TYPE=GC3D20R, ELSET=concrete
       1,    1716,    1634,    1612,    1632,     594,     510,     507,     512,    2918,    2881,    2917,    2919,    3212,    2889,    3069,    3232,    3253,    2892,    2885,    3252
       2,    1715,    1716,    1632,    1631,     593,     594,     512,     513,    2920,    2919,    2916,    2921,    3211,    3232,    3070,    3231,    3254,    3253,    3252,    3251
       3,    1714,    1715,    1631,    1630,     592,     593,     513,     514,    2922,    2921,    2915,    2923,    3209,    3231,    3071,    3230,    3255,    3254,    3251,    3250
       4,    1713,    1714,    1630,    1629,     591,     592,     514,     515,    2924,    2923,    2914,    2925,    3207,    3230,    3072,    3229,    3256,    3255,    3250,    3249
       5,    1712,    1713,    1629,    1628,     590,     591,     515,     516,    2926,    2925,    2913,    2927,    3205,    3229,    3073,    3228,    3257,    3256,    3249,    3248
       6,    1711,    1712,    1628,    1627,     589,     590,     516,     517,    2928,    2927,    2912,    2929,    3203,    3228,    3074,    3227,    3258,    3257,    3248,    3247
       7,    1710,    1711,    1627,    1626,     588,     589,     517,     518,    2930,    2929,    2911,    2931,    3201,    3227,    3075,    3226,    3259,    3258,    3247,    3246
       8,    1709,    1710,    1626,    1625,     587,     588,     518,     519,    2932,    2931,    2910,    2933,    3199,    3226,    3076,    3225,    3260,    3259,    3246,    3245
       9,    1708,    1709,    1625,    1624,     586,     587,     519,     520,    2934,    2933,    2909,    2935,    3197,    3225,    3077,    3224,    3261,    3260,    3245,    3244
      10,    1707,    1708,    1624,    1623,     585,     586,     520,     521,    2936,    2935,    2908,    2937,    3195,    3224,    3078,    3223,    3262,    3261,    3244,    3243
      11,    1706,    1707,    1623,    1622,     584,     585,     521,     522,    2938,    2937,    2907,    2939,    3193,    3223,    3079,    3222,    3263,    3262,    3243,    3242
      12,    1705,    1706,    1622,    1621,     583,     584,     522,     523,    2940,    2939,    2906,    2941,    3191,    3222,    3080,    3221,    3264,    3263,    3242,    3241
      13,    1704,    1705,    1621,    1620,     582,     583,     523,     524,    2942,    2941,    2905,    2943,    3189,    3221,    3081,    3220,    3265,    3264,    3241,    3240
      14,    1703,    1704,    1620,    1619,     581,     582,     524,     525,    2944,    2943,    2904,    2945,    3187,    3220,    3082,    3219,    3266,    3265,    3240,    3239
      15,    1702,    1703,    1619,    1618,     580,     581,     525,     526,    2946,    2945,    2903,    2947,    3185,    3219,    3083,    3218,    3267,    3266,    3239,    3238
      16,    1701,    1702,    1618,    1617,     579,     580,     526,     527,    2948,    2947,    2902,    2949,    3183,    3218,    3084,    3217,    3268,    3267,    3238,    3237
      17,    1700,    1701,    1617,    1616,     578,     579,     527,     528,    2950,    2949,    2901,    2951,    3181,    3217,    3085,    3216,    3269,    3268,    3237,    3236
      18,    1699,    1700,    1616,    1615,     577,     578,     528,     529,    2952,    2951,    2900,    2953,    3179,    3216,    3086,    3215,    3270,    3269,    3236,    3235
      19,    1698,    1699,    1615,    1614,     576,     577,     529,     530,    2954,    2953,    2899,    2955,    3177,    3215,    3087,    3214,    3271,    3270,    3235,    3234
      20,    1697,    1698,    1614,    1613,     575,     576,     530,     531,    2956,    2955,    2898,    2957,    3175,    3214,    3088,    3213,    3272,    3271,    3234,    3233
      21,    1609,    1697,    1613,    1608,     534,     575,     531,     511,    2958,    2957,    2897,    2893,    3173,    3213,    3089,    3064,    3068,    3272,    3233,    3065
      22,    1696,    1635,    1634,    1716,     574,     509,     510,     594,    2959,    2882,    2918,    2960,    3171,    2888,    3212,    3210,    3273,    2891,    2892,    3253
      23,    1695,    1696,    1716,    1715,     573,     574,     594,     593,    2961,    2960,    2920,    2962,    3170,    3210,    3211,    3208,    3274,    3273,    3253,    3254
      24,    1694,    1695,    1715,    1714,     572,     573,     593,     592,    2963,    2962,    2922,    2964,    3168,    3208,    3209,    3206,    3275,    3274,    3254,    3255
      25,    1693,    1694,    1714,    1713,     571,     572,     592,     591,    2965,    2964,    2924,    2966,    3166,    3206,    3207,    3204,    3276,    3275,    3255,    3256
      26,    1692,    1693,    1713,    1712,     570,     571,     591,     590,    2967,    2966,    2926,    2968,    3164,    3204,    3205,    3202,    3277,    3276,    3256,    3257
      27,    1691,    1692,    1712,    1711,     569,     570,     590,     589,    2969,    2968,    2928,    2970,    3162,    3202,    3203,    3200,    3278,    3277,    3257,    3258
      28,    1690,    1691,    1711,    1710,     568,     569,     589,     588,    2971,    2970,    2930,    2972,    3160,    3200,    3201,    3198,    3279,    3278,    3258,    3259
      29,    1689,    1690,    1710,    1709,     567,     568,     588,     587,    2973,    2972,    2932,    2974,    3158,    3198,    3199,    3196,    3280,    3279,    3259,    3260
      30,    1688,    1689,    1709,    1708,     566,     567,     587,     586,    2975,    2974,    2934,    2976,    3156,    3196,    3197,    3194,    3281,    3280,    3260,    3261
      31,    1687,    1688,    1708,    1707,     565,     566,     586,     585,    2977,    2976,    2936,    2978,    3154,    3194,    3195,    3192,    3282,    3281,    3261,    3262
      32,    1686,    1687,    1707,    1706,     564,     565,     585,     584,    2979,    2978,    2938,    2980,    3152,    3192,    3193,    3190,    3283,    3282,    3262,    3263
      33,    1685,    1686,    1706,    1705,     563,     564,     584,     583,    2981,    2980,    2940,    2982,    3150,    3190,    3191,    3188,    3284,    3283,    3263,    3264
      34,    1684,    1685,    1705,    1704,     562,     563,     583,     582,    2983,    2982,    2942,    2984,    3148,    3188,    3189,    3186,    3285,    3284,    3264,    3265
      35,    1683,    1684,    1704,    1703,     561,     562,     582,     581,    2985,    2984,    2944,    2986,    3146,    3186,    3187,    3184,    3286,    3285,    3265,    3266
      36,    1682,    1683,    1703,    1702,     560,     561,     581,     580,    2987,    2986,    2946,    2988,    3144,    3184,    3185,    3182,    3287,    3286,    3266,    3267
      37,    1681,    1682,    1702,    1701,     559,     560,     580,     579,    2989,    2988,    2948,    2990,    3142,    3182,    3183,    3180,    3288,    3287,    3267,    3268
      38,    1680,    1681,    1701,    1700,     558,     559,     579,     578,    2991,    2990,    2950,    2992,    3140,    3180,    3181,    3178,    3289,    3288,    3268,    3269
      39,    1679,    1680,    1700,    1699,     557,     558,     578,     577,    2993,    2992,    2952,    2994,    3138,    3178,    3179,    3176,    3290,    3289,    3269,    3270
      40,    1678,    1679,    1699,    1698,     556,     557,     577,     576,    2995,    2994,    2954,    2996,    3136,    3176,    3177,    3174,    3291,    3290,    3270,    3271
      41,    1677,    1678,    1698,    1697,     555,     556,     576,     575,    2997,    2996,    2956,    2998,    3134,    3174,    3175,    3172,    3292,    3291,    3271,    3272
      42,    1610,    1677,    1697,    1609,     533,     555,     575,     534,    2999,    2998,    2958,    2894,    3132,    3172,    3173,    3063,    3067,    3292,    3272,    3068
      43,    1676,    1636,    1635,    1696,     554,     508,     509,     574,    3000,    2883,    2959,    3001,    3130,    2887,    3171,    3169,    3293,    2890,    2891,    3273
      44,    1675,    1676,    1696,    1695,     553,     554,     574,     573,    3002,    3001,    2961,    3003,    3129,    3169,    3170,    3167,    3294,    3293,    3273,    3274
      45,    1674,    1675,    1695,    1694,     552,     553,     573,     572,    3004,    3003,    2963,    3005,    3127,    3167,    3168,    3165,    3295,    3294,    3274,    3275
      46,    1673,    1674,    1694,    1693,     551,     552,     572,     571,    3006,    3005,    2965,    3007,    3125,    3165,    3166,    3163,    3296,    3295,    3275,    3276
      47,    1672,    1673,    1693,    1692,     550,     551,     571,     570,    3008,    3007,    2967,    3009,    3123,    3163,    3164,    3161,    3297,    3296,    3276,    3277
      48,    1671,    1672,    1692,    1691,     549,     550,     570,     569,    3010,    3009,    2969,    3011,    3121,    3161,    3162,    3159,    3298,    3297,    3277,    3278
      49,    1670,    1671,    1691,    1690,     548,     549,     569,     568,    3012,    3011,    2971,    3013,    3119,    3159,    3160,    3157,    3299,    3298,    3278,    3279
      50,    1669,    1670,    1690,    1689,     547,     548,     568,     567,    3014,    3013,    2973,    3015,    3117,    3157,    3158,    3155,    3300,    3299,    3279,    3280
      51,    1668,    1669,    1689,    1688,     546,     547,     567,     566,    3016,    3015,    2975,    3017,    3115,    3155,    3156,    3153,    3301,    3300,    3280,    3281
      52,    1667,    1668,    1688,    1687,     545,     546,     566,     565,    3018,    3017,    2977,    3019,    3113,    3153,    3154,    3151,    3302,    3301,    3281,    3282
      53,    1666,    1667,    1687,    1686,     544,     545,     565,     564,    3020,    3019,    2979,    3021,    3111,    3151,    3152,    3149,    3303,    3302,    3282,    3283
      54,    1665,    1666,    1686,    1685,     543,     544,     564,     563,    3022,    3021,    2981,    3023,    3109,    3149,    3150,    3147,    3304,    3303,    3283,    3284
      55,    1664,    1665,    1685,    1684,     542,     543,     563,     562,    3024,    3023,    2983,    3025,    3107,    3147,    3148,    3145,    3305,    3304,    3284,    3285
      56,    1663,    1664,    1684,    1683,     541,     542,     562,     561,    3026,    3025,    2985,    3027,    3105,    3145,    3146,    3143,    3306,    3305,    3285,    3286
      57,    1662,    1663,    1683,    1682,     540,     541,     561,     560,    3028,    3027,    2987,    3029,    3103,    3143,    3144,    3141,    3307,    3306,    3286,    3287
      58,    1661,    1662,    1682,    1681,     539,     540,     560,     559,    3030,    3029,    2989,    3031,    3101,    3141,    3142,    3139,    3308,    3307,    3287,    3288
      59,    1660,    1661,    1681,    1680,     538,     539,     559,     558,    3032,    3031,    2991,    3033,    3099,    3139,    3140,    3137,    3309,    3308,    3288,    3289
      60,    1659,    1660,    1680,    1679,     537,     538,     558,     557,    3034,    3033,    2993,    3035,    3097,    3137,    3138,    3135,    3310,    3309,    3289,    3290
      61,    1658,    1659,    1679,    1678,     536,     537,     557,     556,    3036,    3035,    2995,    3037,    3095,    3135,    3136,    3133,    3311,    3310,    3290,    3291
      62,    1657,    1658,    1678,    1677,     535,     536,     556,     555,    3038,    3037,    2997,    3039,    3093,    3133,    3134,    3131,    3312,    3311,    3291,    3292
      63,    1611,    1657,    1677,    1610,     532,     535,     555,     533,    3040,    3039,    2999,    2895,    3091,    3131,    3132,    3062,    3066,    3312,    3292,    3067
      64,    1637,    1633,    1636,    1676,     506,     486,     508,     554,    2818,    2884,    3000,    3041,    2860,    2886,    3130,    3128,    2880,    2839,    2890,    3293
      65,    1638,    1637,    1676,    1675,     505,     506,     554,     553,    2819,    3041,    3002,    3042,    2859,    3128,    3129,    3126,    2879,    2880,    3293,    3294
      66,    1639,    1638,    1675,    1674,     504,     505,     553,     552,    2820,    3042,    3004,    3043,    2858,    3126,    3127,    3124,    2878,    2879,    3294,    3295
      67,    1640,    1639,    1674,    1673,     503,     504,     552,     551,    2821,    3043,    3006,    3044,    2857,    3124,    3125,    3122,    2877,    2878,    3295,    3296
      68,    1641,    1640,    1673,    1672,     502,     503,     551,     550,    2822,    3044,    3008,    3045,    2856,    3122,    3123,    3120,    2876,    2877,    3296,    3297
      69,    1642,    1641,    1672,    1671,     501,     502,     550,     549,    2823,    3045,    3010,    3046,    2855,    3120,    3121,    3118,    2875,    2876,    3297,    3298
      70,    1643,    1642,    1671,    1670,     500,     501,     549,     548,    2824,    3046,    3012,    3047,    2854,    3118,    3119,    3116,    2874,    2875,    3298,    3299
      71,    1644,    1643,    1670,    1669,     499,     500,     548,     547,    2825,    3047,    3014,    3048,    2853,    3116,    3117,    3114,    2873,    2874,    3299,    3300
      72,    1645,    1644,    1669,    1668,     498,     499,     547,     546,    2826,    3048,    3016,    3049,    2852,    3114,    3115,    3112,    2872,    2873,    3300,    3301
      73,    1646,    1645,    1668,    1667,     497,     498,     546,     545,    2827,    3049,    3018,    3050,    2851,    3112,    3113,    3110,    2871,    2872,    3301,    3302
      74,    1647,    1646,    1667,    1666,     496,     497,     545,     544,    2828,    3050,    3020,    3051,    2850,    3110,    3111,    3108,    2870,    2871,    3302,    3303
      75,    1648,    1647,    1666,    1665,     495,     496,     544,     543,    2829,    3051,    3022,    3052,    2849,    3108,    3109,    3106,    2869,    2870,    3303,    3304
      76,    1649,    1648,    1665,    1664,     494,     495,     543,     542,    2830,    3052,    3024,    3053,    2848,    3106,    3107,    3104,    2868,    2869,    3304,    3305
      77,    1650,    1649,    1664,    1663,     493,     494,     542,     541,    2831,    3053,    3026,    3054,    2847,    3104,    3105,    3102,    2867,    2868,    3305,    3306
      78,    1651,    1650,    1663,    1662,     492,     493,     541,     540,    2832,    3054,    3028,    3055,    2846,    3102,    3103,    3100,    2866,    2867,    3306,    3307
      79,    1652,    1651,    1662,    1661,     491,     492,     540,     539,    2833,    3055,    3030,    3056,    2845,    3100,    3101,    3098,    2865,    2866,    3307,    3308
      80,    1653,    1652,    1661,    1660,     490,     491,     539,     538,    2834,    3056,    3032,    3057,    2844,    3098,    3099,    3096,    2864,    2865,    3308,    3309
      81,    1654,    1653,    1660,    1659,     489,     490,     538,     537,    2835,    3057,    3034,    3058,    2843,    3096,    3097,    3094,    2863,    2864,    3309,    3310
      82,    1655,    1654,    1659,    1658,     488,     489,     537,     536,    2836,    3058,    3036,    3059,    2842,    3094,    3095,    3092,    2862,    2863,    3310,    3311
      83,    1656,    1655,    1658,    1657,     487,     488,     536,     535,    2837,    3059,    3038,    3060,    2841,    3092,    3093,    3090,    2861,    2862,    3311,    3312
      84,    1607,    1656,    1657,    1611,     485,     487,     535,     532,    2838,    3060,    3040,    2896,    2840,    3090,    3091,    3061,    2817,    2861,    3312,    3066
      85,    2200,    1761,    1739,    1759,     484,      43,      23,      45,    3440,    3419,    3418,    3441,    5204,    4384,    4322,    5224,    5245,    5244,    4343,    4363
      86,    2199,    2200,    1759,    1758,     483,     484,      45,      46,    3442,    3441,    3417,    3443,    5203,    5224,    4323,    5223,    5246,    5245,    4363,    4362
      87,    2198,    2199,    1758,    1757,     482,     483,      46,      47,    3444,    3443,    3416,    3445,    5201,    5223,    4324,    5222,    5247,    5246,    4362,    4361
      88,    2197,    2198,    1757,    1756,     481,     482,      47,      48,    3446,    3445,    3415,    3447,    5199,    5222,    4325,    5221,    5248,    5247,    4361,    4360
      89,    2196,    2197,    1756,    1755,     480,     481,      48,      49,    3448,    3447,    3414,    3449,    5197,    5221,    4326,    5220,    5249,    5248,    4360,    4359
      90,    2195,    2196,    1755,    1754,     479,     480,      49,      50,    3450,    3449,    3413,    3451,    5195,    5220,    4327,    5219,    5250,    5249,    4359,    4358
      91,    2194,    2195,    1754,    1753,     478,     479,      50,      51,    3452,    3451,    3412,    3453,    5193,    5219,    4328,    5218,    5251,    5250,    4358,    4357
      92,    2193,    2194,    1753,    1752,     477,     478,      51,      52,    3454,    3453,    3411,    3455,    5191,    5218,    4329,    5217,    5252,    5251,    4357,    4356
      93,    2192,    2193,    1752,    1751,     476,     477,      52,      53,    3456,    3455,    3410,    3457,    5189,    5217,    4330,    5216,    5253,    5252,    4356,    4355
      94,    2191,    2192,    1751,    1750,     475,     476,      53,      54,    3458,    3457,    3409,    3459,    5187,    5216,    4331,    5215,    5254,    5253,    4355,    4354
      95,    2190,    2191,    1750,    1749,     474,     475,      54,      55,    3460,    3459,    3408,    3461,    5185,    5215,    4332,    5214,    5255,    5254,    4354,    4353
      96,    2189,    2190,    1749,    1748,     473,     474,      55,      56,    3462,    3461,    3407,    3463,    5183,    5214,    4333,    5213,    5256,    5255,    4353,    4352
      97,    2188,    2189,    1748,    1747,     472,     473,      56,      57,    3464,    3463,    3406,    3465,    5181,    5213,    4334,    5212,    5257,    5256,    4352,    4351
      98,    2187,    2188,    1747,    1746,     471,     472,      57,      58,    3466,    3465,    3405,    3467,    5179,    5212,    4335,    5211,    5258,    5257,    4351,    4350
      99,    2186,    2187,    1746,    1745,     470,     471,      58,      59,    3468,    3467,    3404,    3469,    5177,    5211,    4336,    5210,    5259,    5258,    4350,    4349
     100,    2185,    2186,    1745,    1744,     469,     470,      59,      60,    3470,    3469,    3403,    3471,    5175,    5210,    4337,    5209,    5260,    5259,    4349,    4348
     101,    2184,    2185,    1744,    1743,     468,     469,      60,      61,    3472,    3471,    3402,    3473,    5173,    5209,    4338,    5208,    5261,    5260,    4348,    4347
     102,    2183,    2184,    1743,    1742,     467,     468,      61,      62,    3474,    3473,    3401,    3475,    5171,    5208,    4339,    5207,    5262,    5261,    4347,    4346
     103,    2182,    2183,    1742,    1741,     466,     467,      62,      63,    3476,    3475,    3400,    3477,    5169,    5207,    4340,    5206,    5263,    5262,    4346,    4345
     104,    2181,    2182,    1741,    1740,     465,     466,      63,      64,    3478,    3477,    3399,    3479,    5167,    5206,    4341,    5205,    5264,    5263,    4345,    4344
     105,    1719,    2181,    1740,    1718,      84,     465,      64,      44,    3480,    3479,    3398,    3377,    5165,    5205,    4342,    4301,    4321,    5264,    4344,    4280
     106,    2180,    1762,    1761,    2200,     464,      42,      43,     484,    3481,    3420,    3440,    3482,    5163,    4383,    5204,    5202,    5265,    5243,    5244,    5245
     107,    2179,    2180,    2200,    2199,     463,     464,     484,     483,    3483,    3482,    3442,    3484,    5162,    5202,    5203,    5200,    5266,    5265,    5245,    5246
     108,    2178,    2179,    2199,    2198,     462,     463,     483,     482,    3485,    3484,    3444,    3486,    5160,    5200,    5201,    5198,    5267,    5266,    5246,    5247
     109,    2177,    2178,    2198,    2197,     461,     462,     482,     481,    3487,    3486,    3446,    3488,    5158,    5198,    5199,    5196,    5268,    5267,    5247,    5248
     110,    2176,    2177,    2197,    2196,     460,     461,     481,     480,    3489,    3488,    3448,    3490,    5156,    5196,    5197,    5194,    5269,    5268,    5248,    5249
     111,    2175,    2176,    2196,    2195,     459,     460,     480,     479,    3491,    3490,    3450,    3492,    5154,    5194,    5195,    5192,    5270,    5269,    5249,    5250
     112,    2174,    2175,    2195,    2194,     458,     459,     479,     478,    3493,    3492,    3452,    3494,    5152,    5192,    5193,    5190,    5271,    5270,    5250,    5251
     113,    2173,    2174,    2194,    2193,     457,     458,     478,     477,    3495,    3494,    3454,    3496,    5150,    5190,    5191,    5188,    5272,    5271,    5251,    5252
     114,    2172,    2173,    2193,    2192,     456,     457,     477,     476,    3497,    3496,    3456,    3498,    5148,    5188,    5189,    5186,    5273,    5272,    5252,    5253
     115,    2171,    2172,    2192,    2191,     455,     456,     476,     475,    3499,    3498,    3458,    3500,    5146,    5186,    5187,    5184,    5274,    5273,    5253,    5254
     116,    2170,    2171,    2191,    2190,     454,     455,     475,     474,    3501,    3500,    3460,    3502,    5144,    5184,    5185,    5182,    5275,    5274,    5254,    5255
     117,    2169,    2170,    2190,    2189,     453,     454,     474,     473,    3503,    3502,    3462,    3504,    5142,    5182,    5183,    5180,    5276,    5275,    5255,    5256
     118,    2168,    2169,    2189,    2188,     452,     453,     473,     472,    3505,    3504,    3464,    3506,    5140,    5180,    5181,    5178,    5277,    5276,    5256,    5257
     119,    2167,    2168,    2188,    2187,     451,     452,     472,     471,    3507,    3506,    3466,    3508,    5138,    5178,    5179,    5176,    5278,    5277,    5257,    5258
     120,    2166,    2167,    2187,    2186,     450,     451,     471,     470,    3509,    3508,    3468,    3510,    5136,    5176,    5177,    5174,    5279,    5278,    5258,    5259
     121,    2165,    2166,    2186,    2185,     449,     450,     470,     469,    3511,    3510,    3470,    3512,    5134,    5174,    5175,    5172,    5280,    5279,    5259,    5260
     122,    2164,    2165,    2185,    2184,     448,     449,     469,     468,    3513,    3512,    3472,    3514,    5132,    5172,    5173,    5170,    5281,    5280,    5260,    5261
     123,    2163,    2164,    2184,    2183,     447,     448,     468,     467,    3515,    3514,    3474,    3516,    5130,    5170,    5171,    5168,    5282,    5281,    5261,    5262
     124,    2162,    2163,    2183,    2182,     446,     447,     467,     466,    3517,    3516,    3476,    3518,    5128,    5168,    5169,    5166,    5283,    5282,    5262,    5263
     125,    2161,    2162,    2182,    2181,     445,     446,     466,     465,    3519,    3518,    3478,    3520,    5126,    5166,    5167,    5164,    5284,    5283,    5263,    5264
     126,    1720,    2161,    2181,    1719,      83,     445,     465,      84,    3521,    3520,    3480,    3378,    5124,    5164,    5165,    4300,    4320,    5284,    5264,    4321
     127,    2160,    1763,    1762,    2180,     444,      41,      42,     464,    3522,    3421,    3481,    3523,    5122,    4382,    5163,    5161,    5285,    5242,    5243,    5265
     128,    2159,    2160,    2180,    2179,     443,     444,     464,     463,    3524,    3523,    3483,    3525,    5121,    5161,    5162,    5159,    5286,    5285,    5265,    5266
     129,    2158,    2159,    2179,    2178,     442,     443,     463,     462,    3526,    3525,    3485,    3527,    5119,    5159,    5160,    5157,    5287,    5286,    5266,    5267
     130,    2157,    2158,    2178,    2177,     441,     442,     462,     461,    3528,    3527,    3487,    3529,    5117,    5157,    5158,    5155,    5288,    5287,    5267,    5268
     131,    2156,    2157,    2177,    2176,     440,     441,     461,     460,    3530,    3529,    3489,    3531,    5115,    5155,    5156,    5153,    5289,    5288,    5268,    5269
     132,    2155,    2156,    2176,    2175,     439,     440,     460,     459,    3532,    3531,    3491,    3533,    5113,    5153,    5154,    5151,    5290,    5289,    5269,    5270
     133,    2154,    2155,    2175,    2174,     438,     439,     459,     458,    3534,    3533,    3493,    3535,    5111,    5151,    5152,    5149,    5291,    5290,    5270,    5271
     134,    2153,    2154,    2174,    2173,     437,     438,     458,     457,    3536,    3535,    3495,    3537,    5109,    5149,    5150,    5147,    5292,    5291,    5271,    5272
     135,    2152,    2153,    2173,    2172,     436,     437,     457,     456,    3538,    3537,    3497,    3539,    5107,    5147,    5148,    5145,    5293,    5292,    5272,    5273
     136,    2151,    2152,    2172,    2171,     435,     436,     456,     455,    3540,    3539,    3499,    3541,    5105,    5145,    5146,    5143,    5294,    5293,    5273,    5274
     137,    2150,    2151,    2171,    2170,     434,     435,     455,     454,    3542,    3541,    3501,    3543,    5103,    5143,    5144,    5141,    5295,    5294,    5274,    5275
     138,    2149,    2150,    2170,    2169,     433,     434,     454,     453,    3544,    3543,    3503,    3545,    5101,    5141,    5142,    5139,    5296,    5295,    5275,    5276
     139,    2148,    2149,    2169,    2168,     432,     433,     453,     452,    3546,    3545,    3505,    3547,    5099,    5139,    5140,    5137,    5297,    5296,    5276,    5277
     140,    2147,    2148,    2168,    2167,     431,     432,     452,     451,    3548,    3547,    3507,    3549,    5097,    5137,    5138,    5135,    5298,    5297,    5277,    5278
     141,    2146,    2147,    2167,    2166,     430,     431,     451,     450,    3550,    3549,    3509,    3551,    5095,    5135,    5136,    5133,    5299,    5298,    5278,    5279
     142,    2145,    2146,    2166,    2165,     429,     430,     450,     449,    3552,    3551,    3511,    3553,    5093,    5133,    5134,    5131,    5300,    5299,    5279,    5280
     143,    2144,    2145,    2165,    2164,     428,     429,     449,     448,    3554,    3553,    3513,    3555,    5091,    5131,    5132,    5129,    5301,    5300,    5280,    5281
     144,    2143,    2144,    2164,    2163,     427,     428,     448,     447,    3556,    3555,    3515,    3557,    5089,    5129,    5130,    5127,    5302,    5301,    5281,    5282
     145,    2142,    2143,    2163,    2162,     426,     427,     447,     446,    3558,    3557,    3517,    3559,    5087,    5127,    5128,    5125,    5303,    5302,    5282,    5283
     146,    2141,    2142,    2162,    2161,     425,     426,     446,     445,    3560,    3559,    3519,    3561,    5085,    5125,    5126,    5123,    5304,    5303,    5283,    5284
     147,    1721,    2141,    2161,    1720,      82,     425,     445,      83,    3562,    3561,    3521,    3379,    5083,    5123,    5124,    4299,    4319,    5304,    5284,    4320
     148,    2140,    1764,    1763,    2160,     424,      40,      41,     444,    3563,    3422,    3522,    3564,    5081,    4381,    5122,    5120,    5305,    5241,    5242,    5285
     149,    2139,    2140,    2160,    2159,     423,     424,     444,     443,    3565,    3564,    3524,    3566,    5080,    5120,    5121,    5118,    5306,    5305,    5285,    5286
     150,    2138,    2139,    2159,    2158,     422,     423,     443,     442,    3567,    3566,    3526,    3568,    5078,    5118,    5119,    5116,    5307,    5306,    5286,    5287
     151,    2137,    2138,    2158,    2157,     421,     422,     442,     441,    3569,    3568,    3528,    3570,    5076,    5116,    5117,    5114,    5308,    5307,    5287,    5288
     152,    2136,    2137,    2157,    2156,     420,     421,     441,     440,    3571,    3570,    3530,    3572,    5074,    5114,    5115,    5112,    5309,    5308,    5288,    5289
     153,    2135,    2136,    2156,    2155,     419,     420,     440,     439,    3573,    3572,    3532,    3574,    5072,    5112,    5113,    5110,    5310,    5309,    5289,    5290
     154,    2134,    2135,    2155,    2154,     418,     419,     439,     438,    3575,    3574,    3534,    3576,    5070,    5110,    5111,    5108,    5311,    5310,    5290,    5291
     155,    2133,    2134,    2154,    2153,     417,     418,     438,     437,    3577,    3576,    3536,    3578,    5068,    5108,    5109,    5106,    5312,    5311,    5291,    5292
     156,    2132,    2133,    2153,    2152,     416,     417,     437,     436,    3579,    3578,    3538,    3580,    5066,    5106,    5107,    5104,    5313,    5312,    5292,    5293
     157,    2131,    2132,    2152,    2151,     415,     416,     436,     435,    3581,    3580,    3540,    3582,    5064,    5104,    5105,    5102,    5314,    5313,    5293,    5294
     158,    2130,    2131,    2151,    2150,     414,     415,     435,     434,    3583,    3582,    3542,    3584,    5062,    5102,    5103,    5100,    5315,    5314,    5294,    5295
     159,    2129,    2130,    2150,    2149,     413,     414,     434,     433,    3585,    3584,    3544,    3586,    5060,    5100,    5101,    5098,    5316,    5315,    5295,    5296
     160,    2128,    2129,    2149,    2148,     412,     413,     433,     432,    3587,    3586,    3546,    3588,    5058,    5098,    5099,    5096,    5317,    5316,    5296,    5297
     161,    2127,    2128,    2148,    2147,     411,     412,     432,     431,    3589,    3588,    3548,    3590,    5056,    5096,    5097,    5094,    5318,    5317,    5297,    5298
     162,    2126,    2127,    2147,    2146,     410,     411,     431,     430,    3591,    3590,    3550,    3592,    5054,    5094,    5095,    5092,    5319,    5318,    5298,    5299
     163,    2125,    2126,    2146,    2145,     409,     410,     430,     429,    3593,    3592,    3552,    3594,    5052,    5092,    5093,    5090,    5320,    5319,    5299,    5300
     164,    2124,    2125,    2145,    2144,     408,     409,     429,     428,    3595,    3594,    3554,    3596,    5050,    5090,    5091,    5088,    5321,    5320,    5300,    5301
     165,    2123,    2124,    2144,    2143,     407,     408,     428,     427,    3597,    3596,    3556,    3598,    5048,    5088,    5089,    5086,    5322,    5321,    5301,    5302
     166,    2122,    2123,    2143,    2142,     406,     407,     427,     426,    3599,    3598,    3558,    3600,    5046,    5086,    5087,    5084,    5323,    5322,    5302,    5303
     167,    2121,    2122,    2142,    2141,     405,     406,     426,     425,    3601,    3600,    3560,    3602,    5044,    5084,    5085,    5082,    5324,    5323,    5303,    5304
     168,    1722,    2121,    2141,    1721,      81,     405,     425,      82,    3603,    3602,    3562,    3380,    5042,    5082,    5083,    4298,    4318,    5324,    5304,    4319
     169,    2120,    1765,    1764,    2140,     404,      39,      40,     424,    3604,    3423,    3563,    3605,    5040,    4380,    5081,    5079,    5325,    5240,    5241,    5305
     170,    2119,    2120,    2140,    2139,     403,     404,     424,     423,    3606,    3605,    3565,    3607,    5039,    5079,    5080,    5077,    5326,    5325,    5305,    5306
     171,    2118,    2119,    2139,    2138,     402,     403,     423,     422,    3608,    3607,    3567,    3609,    5037,    5077,    5078,    5075,    5327,    5326,    5306,    5307
     172,    2117,    2118,    2138,    2137,     401,     402,     422,     421,    3610,    3609,    3569,    3611,    5035,    5075,    5076,    5073,    5328,    5327,    5307,    5308
     173,    2116,    2117,    2137,    2136,     400,     401,     421,     420,    3612,    3611,    3571,    3613,    5033,    5073,    5074,    5071,    5329,    5328,    5308,    5309
     174,    2115,    2116,    2136,    2135,     399,     400,     420,     419,    3614,    3613,    3573,    3615,    5031,    5071,    5072,    5069,    5330,    5329,    5309,    5310
     175,    2114,    2115,    2135,    2134,     398,     399,     419,     418,    3616,    3615,    3575,    3617,    5029,    5069,    5070,    5067,    5331,    5330,    5310,    5311
     176,    2113,    2114,    2134,    2133,     397,     398,     418,     417,    3618,    3617,    3577,    3619,    5027,    5067,    5068,    5065,    5332,    5331,    5311,    5312
     177,    2112,    2113,    2133,    2132,     396,     397,     417,     416,    3620,    3619,    3579,    3621,    5025,    5065,    5066,    5063,    5333,    5332,    5312,    5313
     178,    2111,    2112,    2132,    2131,     395,     396,     416,     415,    3622,    3621,    3581,    3623,    5023,    5063,    5064,    5061,    5334,    5333,    5313,    5314
     179,    2110,    2111,    2131,    2130,     394,     395,     415,     414,    3624,    3623,    3583,    3625,    5021,    5061,    5062,    5059,    5335,    5334,    5314,    5315
     180,    2109,    2110,    2130,    2129,     393,     394,     414,     413,    3626,    3625,    3585,    3627,    5019,    5059,    5060,    5057,    5336,    5335,    5315,    5316
     181,    2108,    2109,    2129,    2128,     392,     393,     413,     412,    3628,    3627,    3587,    3629,    5017,    5057,    5058,    5055,    5337,    5336,    5316,    5317
     182,    2107,    2108,    2128,    2127,     391,     392,     412,     411,    3630,    3629,    3589,    3631,    5015,    5055,    5056,    5053,    5338,    5337,    5317,    5318
     183,    2106,    2107,    2127,    2126,     390,     391,     411,     410,    3632,    3631,    3591,    3633,    5013,    5053,    5054,    5051,    5339,    5338,    5318,    5319
     184,    2105,    2106,    2126,    2125,     389,     390,     410,     409,    3634,    3633,    3593,    3635,    5011,    5051,    5052,    5049,    5340,    5339,    5319,    5320
     185,    2104,    2105,    2125,    2124,     388,     389,     409,     408,    3636,    3635,    3595,    3637,    5009,    5049,    5050,    5047,    5341,    5340,    5320,    5321
     186,    2103,    2104,    2124,    2123,     387,     388,     408,     407,    3638,    3637,    3597,    3639,    5007,    5047,    5048,    5045,    5342,    5341,    5321,    5322
     187,    2102,    2103,    2123,    2122,     386,     387,     407,     406,    3640,    3639,    3599,    3641,    5005,    5045,    5046,    5043,    5343,    5342,    5322,    5323
     188,    2101,    2102,    2122,    2121,     385,     386,     406,     405,    3642,    3641,    3601,    3643,    5003,    5043,    5044,    5041,    5344,    5343,    5323,    5324
     189,    1723,    2101,    2121,    1722,      80,     385,     405,      81,    3644,    3643,    3603,    3381,    5001,    5041,    5042,    4297,    4317,    5344,    5324,    4318
     190,    2100,    1766,    1765,    2120,     384,      38,      39,     404,    3645,    3424,    3604,    3646,    4999,    4379,    5040,    5038,    5345,    5239,    5240,    5325
     191,    2099,    2100,    2120,    2119,     383,     384,     404,     403,    3647,    3646,    3606,    3648,    4998,    5038,    5039,    5036,    5346,    5345,    5325,    5326
     192,    2098,    2099,    2119,    2118,     382,     383,     403,     402,    3649,    3648,    3608,    3650,    4996,    5036,    5037,    5034,    5347,    5346,    5326,    5327
     193,    2097,    2098,    2118,    2117,     381,     382,     402,     401,    3651,    3650,    3610,    3652,    4994,    5034,    5035,    5032,    5348,    5347,    5327,    5328
     194,    2096,    2097,    2117,    2116,     380,     381,     401,     400,    3653,    3652,    3612,    3654,    4992,    5032,    5033,    5030,    5349,    5348,    5328,    5329
     195,    2095,    2096,    2116,    2115,     379,     380,     400,     399,    3655,    3654,    3614,    3656,    4990,    5030,    5031,    5028,    5350,    5349,    5329,    5330
     196,    2094,    2095,    2115,    2114,     378,     379,     399,     398,    3657,    3656,    3616,    3658,    4988,    5028,    5029,    5026,    5351,    5350,    5330,    5331
     197,    2093,    2094,    2114,    2113,     377,     378,     398,     397,    3659,    3658,    3618,    3660,    4986,    5026,    5027,    5024,    5352,    5351,    5331,    5332
     198,    2092,    2093,    2113,    2112,     376,     377,     397,     396,    3661,    3660,    3620,    3662,    4984,    5024,    5025,    5022,    5353,    5352,    5332,    5333
     199,    2091,    2092,    2112,    2111,     375,     376,     396,     395,    3663,    3662,    3622,    3664,    4982,    5022,    5023,    5020,    5354,    5353,    5333,    5334
     200,    2090,    2091,    2111,    2110,     374,     375,     395,     394,    3665,    3664,    3624,    3666,    4980,    5020,    5021,    5018,    5355,    5354,    5334,    5335
     201,    2089,    2090,    2110,    2109,     373,     374,     394,     393,    3667,    3666,    3626,    3668,    4978,    5018,    5019,    5016,    5356,    5355,    5335,    5336
     202,    2088,    2089,    2109,    2108,     372,     373,     393,     392,    3669,    3668,    3628,    3670,    4976,    5016,    5017,    5014,    5357,    5356,    5336,    5337
     203,    2087,    2088,    2108,    2107,     371,     372,     392,     391,    3671,    3670,    3630,    3672,    4974,    5014,    5015,    5012,    5358,    5357,    5337,    5338
     204,    2086,    2087,    2107,    2106,     370,     371,     391,     390,    3673,    3672,    3632,    3674,    4972,    5012,    5013,    5010,    5359,    5358,    5338,    5339
     205,    2085,    2086,    2106,    2105,     369,     370,     390,     389,    3675,    3674,    3634,    3676,    4970,    5010,    5011,    5008,    5360,    5359,    5339,    5340
     206,    2084,    2085,    2105,    2104,     368,     369,     389,     388,    3677,    3676,    3636,    3678,    4968,    5008,    5009,    5006,    5361,    5360,    5340,    5341
     207,    2083,    2084,    2104,    2103,     367,     368,     388,     387,    3679,    3678,    3638,    3680,    4966,    5006,    5007,    5004,    5362,    5361,    5341,    5342
     208,    2082,    2083,    2103,    2102,     366,     367,     387,     386,    3681,    3680,    3640,    3682,    4964,    5004,    5005,    5002,    5363,    5362,    5342,    5343
     209,    2081,    2082,    2102,    2101,     365,     366,     386,     385,    3683,    3682,    3642,    3684,    4962,    5002,    5003,    5000,    5364,    5363,    5343,    5344
     210,    1724,    2081,    2101,    1723,      79,     365,     385,      80,    3685,    3684,    3644,    3382,    4960,    5000,    5001,    4296,    4316,    5364,    5344,    4317
     211,    2080,    1767,    1766,    2100,     364,      37,      38,     384,    3686,    3425,    3645,    3687,    4958,    4378,    4999,    4997,    5365,    5238,    5239,    5345
     212,    2079,    2080,    2100,    2099,     363,     364,     384,     383,    3688,    3687,    3647,    3689,    4957,    4997,    4998,    4995,    5366,    5365,    5345,    5346
     213,    2078,    2079,    2099,    2098,     362,     363,     383,     382,    3690,    3689,    3649,    3691,    4955,    4995,    4996,    4993,    5367,    5366,    5346,    5347
     214,    2077,    2078,    2098,    2097,     361,     362,     382,     381,    3692,    3691,    3651,    3693,    4953,    4993,    4994,    4991,    5368,    5367,    5347,    5348
     215,    2076,    2077,    2097,    2096,     360,     361,     381,     380,    3694,    3693,    3653,    3695,    4951,    4991,    4992,    4989,    5369,    5368,    5348,    5349
     216,    2075,    2076,    2096,    2095,     359,     360,     380,     379,    3696,    3695,    3655,    3697,    4949,    4989,    4990,    4987,    5370,    5369,    5349,    5350
     217,    2074,    2075,    2095,    2094,     358,     359,     379,     378,    3698,    3697,    3657,    3699,    4947,    4987,    4988,    4985,    5371,    5370,    5350,    5351
     218,    2073,    2074,    2094,    2093,     357,     358,     378,     377,    3700,    3699,    3659,    3701,    4945,    4985,    4986,    4983,    5372,    5371,    5351,    5352
     219,    2072,    2073,    2093,    2092,     356,     357,     377,     376,    3702,    3701,    3661,    3703,    4943,    4983,    4984,    4981,    5373,    5372,    5352,    5353
     220,    2071,    2072,    2092,    2091,     355,     356,     376,     375,    3704,    3703,    3663,    3705,    4941,    4981,    4982,    4979,    5374,    5373,    5353,    5354
     221,    2070,    2071,    2091,    2090,     354,     355,     375,     374,    3706,    3705,    3665,    3707,    4939,    4979,    4980,    4977,    5375,    5374,    5354,    5355
     222,    2069,    2070,    2090,    2089,     353,     354,     374,     373,    3708,    3707,    3667,    3709,    4937,    4977,    4978,    4975,    5376,    5375,    5355,    5356
     223,    2068,    2069,    2089,    2088,     352,     353,     373,     372,    3710,    3709,    3669,    3711,    4935,    4975,    4976,    4973,    5377,    5376,    5356,    5357
     224,    2067,    2068,    2088,    2087,     351,     352,     372,     371,    3712,    3711,    3671,    3713,    4933,    4973,    4974,    4971,    5378,    5377,    5357,    5358
     225,    2066,    2067,    2087,    2086,     350,     351,     371,     370,    3714,    3713,    3673,    3715,    4931,    4971,    4972,    4969,    5379,    5378,    5358,    5359
     226,    2065,    2066,    2086,    2085,     349,     350,     370,     369,    3716,    3715,    3675,    3717,    4929,    4969,    4970,    4967,    5380,    5379,    5359,    5360
     227,    2064,    2065,    2085,    2084,     348,     349,     369,     368,    3718,    3717,    3677,    3719,    4927,    4967,    4968,    4965,    5381,    5380,    5360,    5361
     228,    2063,    2064,    2084,    2083,     347,     348,     368,     367,    3720,    3719,    3679,    3721,    4925,    4965,    4966,    4963,    5382,    5381,    5361,    5362
     229,    2062,    2063,    2083,    2082,     346,     347,     367,     366,    3722,    3721,    3681,    3723,    4923,    4963,    4964,    4961,    5383,    5382,    5362,    5363
     230,    2061,    2062,    2082,    2081,     345,     346,     366,     365,    3724,    3723,    3683,    3725,    4921,    4961,    4962,    4959,    5384,    5383,    5363,    5364
     231,    1725,    2061,    2081,    1724,      78,     345,     365,      79,    3726,    3725,    3685,    3383,    4919,    4959,    4960,    4295,    4315,    5384,    5364,    4316
     232,    2060,    1768,    1767,    2080,     344,      36,      37,     364,    3727,    3426,    3686,    3728,    4917,    4377,    4958,    4956,    5385,    5237,    5238,    5365
     233,    2059,    2060,    2080,    2079,     343,     344,     364,     363,    3729,    3728,    3688,    3730,    4916,    4956,    4957,    4954,    5386,    5385,    5365,    5366
     234,    2058,    2059,    2079,    2078,     342,     343,     363,     362,    3731,    3730,    3690,    3732,    4914,    4954,    4955,    4952,    5387,    5386,    5366,    5367
     235,    2057,    2058,    2078,    2077,     341,     342,     362,     361,    3733,    3732,    3692,    3734,    4912,    4952,    4953,    4950,    5388,    5387,    5367,    5368
     236,    2056,    2057,    2077,    2076,     340,     341,     361,     360,    3735,    3734,    3694,    3736,    4910,    4950,    4951,    4948,    5389,    5388,    5368,    5369
     237,    2055,    2056,    2076,    2075,     339,     340,     360,     359,    3737,    3736,    3696,    3738,    4908,    4948,    4949,    4946,    5390,    5389,    5369,    5370
     238,    2054,    2055,    2075,    2074,     338,     339,     359,     358,    3739,    3738,    3698,    3740,    4906,    4946,    4947,    4944,    5391,    5390,    5370,    5371
     239,    2053,    2054,    2074,    2073,     337,     338,     358,     357,    3741,    3740,    3700,    3742,    4904,    4944,    4945,    4942,    5392,    5391,    5371,    5372
     240,    2052,    2053,    2073,    2072,     336,     337,     357,     356,    3743,    3742,    3702,    3744,    4902,    4942,    4943,    4940,    5393,    5392,    5372,    5373
     241,    2051,    2052,    2072,    2071,     335,     336,     356,     355,    3745,    3744,    3704,    3746,    4900,    4940,    4941,    4938,    5394,    5393,    5373,    5374
     242,    2050,    2051,    2071,    2070,     334,     335,     355,     354,    3747,    3746,    3706,    3748,    4898,    4938,    4939,    4936,    5395,    5394,    5374,    5375
     243,    2049,    2050,    2070,    2069,     333,     334,     354,     353,    3749,    3748,    3708,    3750,    4896,    4936,    4937,    4934,    5396,    5395,    5375,    5376
     244,    2048,    2049,    2069,    2068,     332,     333,     353,     352,    3751,    3750,    3710,    3752,    4894,    4934,    4935,    4932,    5397,    5396,    5376,    5377
     245,    2047,    2048,    2068,    2067,     331,     332,     352,     351,    3753,    3752,    3712,    3754,    4892,    4932,    4933,    4930,    5398,    5397,    5377,    5378
     246,    2046,    2047,    2067,    2066,     330,     331,     351,     350,    3755,    3754,    3714,    3756,    4890,    4930,    4931,    4928,    5399,    5398,    5378,    5379
     247,    2045,    2046,    2066,    2065,     329,     330,     350,     349,    3757,    3756,    3716,    3758,    4888,    4928,    4929,    4926,    5400,    5399,    5379,    5380
     248,    2044,    2045,    2065,    2064,     328,     329,     349,     348,    3759,    3758,    3718,    3760,    4886,    4926,    4927,    4924,    5401,    5400,    5380,    5381
     249,    2043,    2044,    2064,    2063,     327,     328,     348,     347,    3761,    3760,    3720,    3762,    4884,    4924,    4925,    4922,    5402,    5401,    5381,    5382
     250,    2042,    2043,    2063,    2062,     326,     327,     347,     346,    3763,    3762,    3722,    3764,    4882,    4922,    4923,    4920,    5403,    5402,    5382,    5383
     251,    2041,    2042,    2062,    2061,     325,     326,     346,     345,    3765,    3764,    3724,    3766,    4880,    4920,    4921,    4918,    5404,    5403,    5383,    5384
     252,    1726,    2041,    2061,    1725,      77,     325,     345,      78,    3767,    3766,    3726,    3384,    4878,    4918,    4919,    4294,    4314,    5404,    5384,    4315
     253,    2040,    1769,    1768,    2060,     324,      35,      36,     344,    3768,    3427,    3727,    3769,    4876,    4376,    4917,    4915,    5405,    5236,    5237,    5385
     254,    2039,    2040,    2060,    2059,     323,     324,     344,     343,    3770,    3769,    3729,    3771,    4875,    4915,    4916,    4913,    5406,    5405,    5385,    5386
     255,    2038,    2039,    2059,    2058,     322,     323,     343,     342,    3772,    3771,    3731,    3773,    4873,    4913,    4914,    4911,    5407,    5406,    5386,    5387
     256,    2037,    2038,    2058,    2057,     321,     322,     342,     341,    3774,    3773,    3733,    3775,    4871,    4911,    4912,    4909,    5408,    5407,    5387,    5388
     257,    2036,    2037,    2057,    2056,     320,     321,     341,     340,    3776,    3775,    3735,    3777,    4869,    4909,    4910,    4907,    5409,    5408,    5388,    5389
     258,    2035,    2036,    2056,    2055,     319,     320,     340,     339,    3778,    3777,    3737,    3779,    4867,    4907,    4908,    4905,    5410,    5409,    5389,    5390
     259,    2034,    2035,    2055,    2054,     318,     319,     339,     338,    3780,    3779,    3739,    3781,    4865,    4905,    4906,    4903,    5411,    5410,    5390,    5391
     260,    2033,    2034,    2054,    2053,     317,     318,     338,     337,    3782,    3781,    3741,    3783,    4863,    4903,    4904,    4901,    5412,    5411,    5391,    5392
     261,    2032,    2033,    2053,    2052,     316,     317,     337,     336,    3784,    3783,    3743,    3785,    4861,    4901,    4902,    4899,    5413,    5412,    5392,    5393
     262,    2031,    2032,    2052,    2051,     315,     316,     336,     335,    3786,    3785,    3745,    3787,    4859,    4899,    4900,    4897,    5414,    5413,    5393,    5394
     263,    2030,    2031,    2051,    2050,     314,     315,     335,     334,    3788,    3787,    3747,    3789,    4857,    4897,    4898,    4895,    5415,    5414,    5394,    5395
     264,    2029,    2030,    2050,    2049,     313,     314,     334,     333,    3790,    3789,    3749,    3791,    4855,    4895,    4896,    4893,    5416,    5415,    5395,    5396
     265,    2028,    2029,    2049,    2048,     312,     313,     333,     332,    3792,    3791,    3751,    3793,    4853,    4893,    4894,    4891,    5417,    5416,    5396,    5397
     266,    2027,    2028,    2048,    2047,     311,     312,     332,     331,    3794,    3793,    3753,    3795,    4851,    4891,    4892,    4889,    5418,    5417,    5397,    5398
     267,    2026,    2027,    2047,    2046,     310,     311,     331,     330,    3796,    3795,    3755,    3797,    4849,    4889,    4890,    4887,    5419,    5418,    5398,    5399
     268,    2025,    2026,    2046,    2045,     309,     310,     330,     329,    3798,    3797,    3757,    3799,    4847,    4887,    4888,    4885,    5420,    5419,    5399,    5400
     269,    2024,    2025,    2045,    2044,     308,     309,     329,     328,    3800,    3799,    3759,    3801,    4845,    4885,    4886,    4883,    5421,    5420,    5400,    5401
     270,    2023,    2024,    2044,    2043,     307,     308,     328,     327,    3802,    3801,    3761,    3803,    4843,    4883,    4884,    4881,    5422,    5421,    5401,    5402
     271,    2022,    2023,    2043,    2042,     306,     307,     327,     326,    3804,    3803,    3763,    3805,    4841,    4881,    4882,    4879,    5423,    5422,    5402,    5403
     272,    2021,    2022,    2042,    2041,     305,     306,     326,     325,    3806,    3805,    3765,    3807,    4839,    4879,    4880,    4877,    5424,    5423,    5403,    5404
     273,    1727,    2021,    2041,    1726,      76,     305,     325,      77,    3808,    3807,    3767,    3385,    4837,    4877,    4878,    4293,    4313,    5424,    5404,    4314
     274,    2020,    1770,    1769,    2040,     304,      34,      35,     324,    3809,    3428,    3768,    3810,    4835,    4375,    4876,    4874,    5425,    5235,    5236,    5405
     275,    2019,    2020,    2040,    2039,     303,     304,     324,     323,    3811,    3810,    3770,    3812,    4834,    4874,    4875,    4872,    5426,    5425,    5405,    5406
     276,    2018,    2019,    2039,    2038,     302,     303,     323,     322,    3813,    3812,    3772,    3814,    4832,    4872,    4873,    4870,    5427,    5426,    5406,    5407
     277,    2017,    2018,    2038,    2037,     301,     302,     322,     321,    3815,    3814,    3774,    3816,    4830,    4870,    4871,    4868,    5428,    5427,    5407,    5408
     278,    2016,    2017,    2037,    2036,     300,     301,     321,     320,    3817,    3816,    3776,    3818,    4828,    4868,    4869,    4866,    5429,    5428,    5408,    5409
     279,    2015,    2016,    2036,    2035,     299,     300,     320,     319,    3819,    3818,    3778,    3820,    4826,    4866,    4867,    4864,    5430,    5429,    5409,    5410
     280,    2014,    2015,    2035,    2034,     298,     299,     319,     318,    3821,    3820,    3780,    3822,    4824,    4864,    4865,    4862,    5431,    5430,    5410,    5411
     281,    2013,    2014,    2034,    2033,     297,     298,     318,     317,    3823,    3822,    3782,    3824,    4822,    4862,    4863,    4860,    5432,    5431,    5411,    5412
     282,    2012,    2013,    2033,    2032,     296,     297,     317,     316,    3825,    3824,    3784,    3826,    4820,    4860,    4861,    4858,    5433,    5432,    5412,    5413
     283,    2011,    2012,    2032,    2031,     295,     296,     316,     315,    3827,    3826,    3786,    3828,    4818,    4858,    4859,    4856,    5434,    5433,    5413,    5414
     284,    2010,    2011,    2031,    2030,     294,     295,     315,     314,    3829,    3828,    3788,    3830,    4816,    4856,    4857,    4854,    5435,    5434,    5414,    5415
     285,    2009,    2010,    2030,    2029,     293,     294,     314,     313,    3831,    3830,    3790,    3832,    4814,    4854,    4855,    4852,    5436,    5435,    5415,    5416
     286,    2008,    2009,    2029,    2028,     292,     293,     313,     312,    3833,    3832,    3792,    3834,    4812,    4852,    4853,    4850,    5437,    5436,    5416,    5417
     287,    2007,    2008,    2028,    2027,     291,     292,     312,     311,    3835,    3834,    3794,    3836,    4810,    4850,    4851,    4848,    5438,    5437,    5417,    5418
     288,    2006,    2007,    2027,    2026,     290,     291,     311,     310,    3837,    3836,    3796,    3838,    4808,    4848,    4849,    4846,    5439,    5438,    5418,    5419
     289,    2005,    2006,    2026,    2025,     289,     290,     310,     309,    3839,    3838,    3798,    3840,    4806,    4846,    4847,    4844,    5440,    5439,    5419,    5420
     290,    2004,    2005,    2025,    2024,     288,     289,     309,     308,    3841,    3840,    3800,    3842,    4804,    4844,    4845,    4842,    5441,    5440,    5420,    5421
     291,    2003,    2004,    2024,    2023,     287,     288,     308,     307,    3843,    3842,    3802,    3844,    4802,    4842,    4843,    4840,    5442,    5441,    5421,    5422
     292,    2002,    2003,    2023,    2022,     286,     287,     307,     306,    3845,    3844,    3804,    3846,    4800,    4840,    4841,    4838,    5443,    5442,    5422,    5423
     293,    2001,    2002,    2022,    2021,     285,     286,     306,     305,    3847,    3846,    3806,    3848,    4798,    4838,    4839,    4836,    5444,    5443,    5423,    5424
     294,    1728,    2001,    2021,    1727,      75,     285,     305,      76,    3849,    3848,    3808,    3386,    4796,    4836,    4837,    4292,    4312,    5444,    5424,    4313
     295,    2000,    1771,    1770,    2020,     284,      33,      34,     304,    3850,    3429,    3809,    3851,    4794,    4374,    4835,    4833,    5445,    5234,    5235,    5425
     296,    1999,    2000,    2020,    2019,     283,     284,     304,     303,    3852,    3851,    3811,    3853,    4793,    4833,    4834,    4831,    5446,    5445,    5425,    5426
     297,    1998,    1999,    2019,    2018,     282,     283,     303,     302,    3854,    3853,    3813,    3855,    4791,    4831,    4832,    4829,    5447,    5446,    5426,    5427
     298,    1997,    1998,    2018,    2017,     281,     282,     302,     301,    3856,    3855,    3815,    3857,    4789,    4829,    4830,    4827,    5448,    5447,    5427,    5428
     299,    1996,    1997,    2017,    2016,     280,     281,     301,     300,    3858,    3857,    3817,    3859,    4787,    4827,    4828,    4825,    5449,    5448,    5428,    5429
     300,    1995,    1996,    2016,    2015,     279,     280,     300,     299,    3860,    3859,    3819,    3861,    4785,    4825,    4826,    4823,    5450,    5449,    5429,    5430
     301,    1994,    1995,    2015,    2014,     278,     279,     299,     298,    3862,    3861,    3821,    3863,    4783,    4823,    4824,    4821,    5451,    5450,    5430,    5431
     302,    1993,    1994,    2014,    2013,     277,     278,     298,     297,    3864,    3863,    3823,    3865,    4781,    4821,    4822,    4819,    5452,    5451,    5431,    5432
     303,    1992,    1993,    2013,    2012,     276,     277,     297,     296,    3866,    3865,    3825,    3867,    4779,    4819,    4820,    4817,    5453,    5452,    5432,    5433
     304,    1991,    1992,    2012,    2011,     275,     276,     296,     295,    3868,    3867,    3827,    3869,    4777,    4817,    4818,    4815,    5454,    5453,    5433,    5434
     305,    1990,    1991,    2011,    2010,     274,     275,     295,     294,    3870,    3869,    3829,    3871,    4775,    4815,    4816,    4813,    5455,    5454,    5434,    5435
     306,    1989,    1990,    2010,    2009,     273,     274,     294,     293,    3872,    3871,    3831,    3873,    4773,    4813,    4814,    4811,    5456,    5455,    5435,    5436
     307,    1988,    1989,    2009,    2008,     272,     273,     293,     292,    3874,    3873,    3833,    3875,    4771,    4811,    4812,    4809,    5457,    5456,    5436,    5437
     308,    1987,    1988,    2008,    2007,     271,     272,     292,     291,    3876,    3875,    3835,    3877,    4769,    4809,    4810,    4807,    5458,    5457,    5437,    5438
     309,    1986,    1987,    2007,    2006,     270,     271,     291,     290,    3878,    3877,    3837,    3879,    4767,    4807,    4808,    4805,    5459,    5458,    5438,    5439
     310,    1985,    1986,    2006,    2005,     269,     270,     290,     289,    3880,    3879,    3839,    3881,    4765,    4805,    4806,    4803,    5460,    5459,    5439,    5440
     311,    1984,    1985,    2005,    2004,     268,     269,     289,     288,    3882,    3881,    3841,    3883,    4763,    4803,    4804,    4801,    5461,    5460,    5440,    5441
     312,    1983,    1984,    2004,    2003,     267,     268,     288,     287,    3884,    3883,    3843,    3885,    4761,    4801,    4802,    4799,    5462,    5461,    5441,    5442
     313,    1982,    1983,    2003,    2002,     266,     267,     287,     286,    3886,    3885,    3845,    3887,    4759,    4799,    4800,    4797,    5463,    5462,    5442,    5443
     314,    1981,    1982,    2002,    2001,     265,     266,     286,     285,    3888,    3887,    3847,    3889,    4757,    4797,    4798,    4795,    5464,    5463,    5443,    5444
     315,    1729,    1981,    2001,    1728,      74,     265,     285,      75,    3890,    3889,    3849,    3387,    4755,    4795,    4796,    4291,    4311,    5464,    5444,    4312
     316,    1980,    1772,    1771,    2000,     264,      32,      33,     284,    3891,    3430,    3850,    3892,    4753,    4373,    4794,    4792,    5465,    5233,    5234,    5445
     317,    1979,    1980,    2000,    1999,     263,     264,     284,     283,    3893,    3892,    3852,    3894,    4752,    4792,    4793,    4790,    5466,    5465,    5445,    5446
     318,    1978,    1979,    1999,    1998,     262,     263,     283,     282,    3895,    3894,    3854,    3896,    4750,    4790,    4791,    4788,    5467,    5466,    5446,    5447
     319,    1977,    1978,    1998,    1997,     261,     262,     282,     281,    3897,    3896,    3856,    3898,    4748,    4788,    4789,    4786,    5468,    5467,    5447,    5448
     320,    1976,    1977,    1997,    1996,     260,     261,     281,     280,    3899,    3898,    3858,    3900,    4746,    4786,    4787,    4784,    5469,    5468,    5448,    5449
     321,    1975,    1976,    1996,    1995,     259,     260,     280,     279,    3901,    3900,    3860,    3902,    4744,    4784,    4785,    4782,    5470,    5469,    5449,    5450
     322,    1974,    1975,    1995,    1994,     258,     259,     279,     278,    3903,    3902,    3862,    3904,    4742,    4782,    4783,    4780,    5471,    5470,    5450,    5451
     323,    1973,    1974,    1994,    1993,     257,     258,     278,     277,    3905,    3904,    3864,    3906,    4740,    4780,    4781,    4778,    5472,    5471,    5451,    5452
     324,    1972,    1973,    1993,    1992,     256,     257,     277,     276,    3907,    3906,    3866,    3908,    4738,    4778,    4779,    4776,    5473,    5472,    5452,    5453
     325,    1971,    1972,    1992,    1991,     255,     256,     276,     275,    3909,    3908,    3868,    3910,    4736,    4776,    4777,    4774,    5474,    5473,    5453,    5454
     326,    1970,    1971,    1991,    1990,     254,     255,     275,     274,    3911,    3910,    3870,    3912,    4734,    4774,    4775,    4772,    5475,    5474,    5454,    5455
     327,    1969,    1970,    1990,    1989,     253,     254,     274,     273,    3913,    3912,    3872,    3914,    4732,    4772,    4773,    4770,    5476,    5475,    5455,    5456
     328,    1968,    1969,    1989,    1988,     252,     253,     273,     272,    3915,    3914,    3874,    3916,    4730,    4770,    4771,    4768,    5477,    5476,    5456,    5457
     329,    1967,    1968,    1988,    1987,     251,     252,     272,     271,    3917,    3916,    3876,    3918,    4728,    4768,    4769,    4766,    5478,    5477,    5457,    5458
     330,    1966,    1967,    1987,    1986,     250,     251,     271,     270,    3919,    3918,    3878,    3920,    4726,    4766,    4767,    4764,    5479,    5478,    5458,    5459
     331,    1965,    1966,    1986,    1985,     249,     250,     270,     269,    3921,    3920,    3880,    3922,    4724,    4764,    4765,    4762,    5480,    5479,    5459,    5460
     332,    1964,    1965,    1985,    1984,     248,     249,     269,     268,    3923,    3922,    3882,    3924,    4722,    4762,    4763,    4760,    5481,    5480,    5460,    5461
     333,    1963,    1964,    1984,    1983,     247,     248,     268,     267,    3925,    3924,    3884,    3926,    4720,    4760,    4761,    4758,    5482,    5481,    5461,    5462
     334,    1962,    1963,    1983,    1982,     246,     247,     267,     266,    3927,    3926,    3886,    3928,    4718,    4758,    4759,    4756,    5483,    5482,    5462,    5463
     335,    1961,    1962,    1982,    1981,     245,     246,     266,     265,    3929,    3928,    3888,    3930,    4716,    4756,    4757,    4754,    5484,    5483,    5463,    5464
     336,    1730,    1961,    1981,    1729,      73,     245,     265,      74,    3931,    3930,    3890,    3388,    4714,    4754,    4755,    4290,    4310,    5484,    5464,    4311
     337,    1960,    1773,    1772,    1980,     244,      31,      32,     264,    3932,    3431,    3891,    3933,    4712,    4372,    4753,    4751,    5485,    5232,    5233,    5465
     338,    1959,    1960,    1980,    1979,     243,     244,     264,     263,    3934,    3933,    3893,    3935,    4711,    4751,    4752,    4749,    5486,    5485,    5465,    5466
     339,    1958,    1959,    1979,    1978,     242,     243,     263,     262,    3936,    3935,    3895,    3937,    4709,    4749,    4750,    4747,    5487,    5486,    5466,    5467
     340,    1957,    1958,    1978,    1977,     241,     242,     262,     261,    3938,    3937,    3897,    3939,    4707,    4747,    4748,    4745,    5488,    5487,    5467,    5468
     341,    1956,    1957,    1977,    1976,     240,     241,     261,     260,    3940,    3939,    3899,    3941,    4705,    4745,    4746,    4743,    5489,    5488,    5468,    5469
     342,    1955,    1956,    1976,    1975,     239,     240,     260,     259,    3942,    3941,    3901,    3943,    4703,    4743,    4744,    4741,    5490,    5489,    5469,    5470
     343,    1954,    1955,    1975,    1974,     238,     239,     259,     258,    3944,    3943,    3903,    3945,    4701,    4741,    4742,    4739,    5491,    5490,    5470,    5471
     344,    1953,    1954,    1974,    1973,     237,     238,     258,     257,    3946,    3945,    3905,    3947,    4699,    4739,    4740,    4737,    5492,    5491,    5471,    5472
     345,    1952,    1953,    1973,    1972,     236,     237,     257,     256,    3948,    3947,    3907,    3949,    4697,    4737,    4738,    4735,    5493,    5492,    5472,    5473
     346,    1951,    1952,    1972,    1971,     235,     236,     256,     255,    3950,    3949,    3909,    3951,    4695,    4735,    4736,    4733,    5494,    5493,    5473,    5474
     347,    1950,    1951,    1971,    1970,     234,     235,     255,     254,    3952,    3951,    3911,    3953,    4693,    4733,    4734,    4731,    5495,    5494,    5474,    5475
     348,    1949,    1950,    1970,    1969,     233,     234,     254,     253,    3954,    3953,    3913,    3955,    4691,    4731,    4732,    4729,    5496,    5495,    5475,    5476
     349,    1948,    1949,    1969,    1968,     232,     233,     253,     252,    3956,    3955,    3915,    3957,    4689,    4729,    4730,    4727,    5497,    5496,    5476,    5477
     350,    1947,    1948,    1968,    1967,     231,     232,     252,     251,    3958,    3957,    3917,    3959,    4687,    4727,    4728,    4725,    5498,    5497,    5477,    5478
     351,    1946,    1947,    1967,    1966,     230,     231,     251,     250,    3960,    3959,    3919,    3961,    4685,    4725,    4726,    4723,    5499,    5498,    5478,    5479
     352,    1945,    1946,    1966,    1965,     229,     230,     250,     249,    3962,    3961,    3921,    3963,    4683,    4723,    4724,    4721,    5500,    5499,    5479,    5480
     353,    1944,    1945,    1965,    1964,     228,     229,     249,     248,    3964,    3963,    3923,    3965,    4681,    4721,    4722,    4719,    5501,    5500,    5480,    5481
     354,    1943,    1944,    1964,    1963,     227,     228,     248,     247,    3966,    3965,    3925,    3967,    4679,    4719,    4720,    4717,    5502,    5501,    5481,    5482
     355,    1942,    1943,    1963,    1962,     226,     227,     247,     246,    3968,    3967,    3927,    3969,    4677,    4717,    4718,    4715,    5503,    5502,    5482,    5483
     356,    1941,    1942,    1962,    1961,     225,     226,     246,     245,    3970,    3969,    3929,    3971,    4675,    4715,    4716,    4713,    5504,    5503,    5483,    5484
     357,    1731,    1941,    1961,    1730,      72,     225,     245,      73,    3972,    3971,    3931,    3389,    4673,    4713,    4714,    4289,    4309,    5504,    5484,    4310
     358,    1940,    1774,    1773,    1960,     224,      30,      31,     244,    3973,    3432,    3932,    3974,    4671,    4371,    4712,    4710,    5505,    5231,    5232,    5485
     359,    1939,    1940,    1960,    1959,     223,     224,     244,     243,    3975,    3974,    3934,    3976,    4670,    4710,    4711,    4708,    5506,    5505,    5485,    5486
     360,    1938,    1939,    1959,    1958,     222,     223,     243,     242,    3977,    3976,    3936,    3978,    4668,    4708,    4709,    4706,    5507,    5506,    5486,    5487
     361,    1937,    1938,    1958,    1957,     221,     222,     242,     241,    3979,    3978,    3938,    3980,    4666,    4706,    4707,    4704,    5508,    5507,    5487,    5488
     362,    1936,    1937,    1957,    1956,     220,     221,     241,     240,    3981,    3980,    3940,    3982,    4664,    4704,    4705,    4702,    5509,    5508,    5488,    5489
     363,    1935,    1936,    1956,    1955,     219,     220,     240,     239,    3983,    3982,    3942,    3984,    4662,    4702,    4703,    4700,    5510,    5509,    5489,    5490
     364,    1934,    1935,    1955,    1954,     218,     219,     239,     238,    3985,    3984,    3944,    3986,    4660,    4700,    4701,    4698,    5511,    5510,    5490,    5491
     365,    1933,    1934,    1954,    1953,     217,     218,     238,     237,    3987,    3986,    3946,    3988,    4658,    4698,    4699,    4696,    5512,    5511,    5491,    5492
     366,    1932,    1933,    1953,    1952,     216,     217,     237,     236,    3989,    3988,    3948,    3990,    4656,    4696,    4697,    4694,    5513,    5512,    5492,    5493
     367,    1931,    1932,    1952,    1951,     215,     216,     236,     235,    3991,    3990,    3950,    3992,    4654,    4694,    4695,    4692,    5514,    5513,    5493,    5494
     368,    1930,    1931,    1951,    1950,     214,     215,     235,     234,    3993,    3992,    3952,    3994,    4652,    4692,    4693,    4690,    5515,    5514,    5494,    5495
     369,    1929,    1930,    1950,    1949,     213,     214,     234,     233,    3995,    3994,    3954,    3996,    4650,    4690,    4691,    4688,    5516,    5515,    5495,    5496
     370,    1928,    1929,    1949,    1948,     212,     213,     233,     232,    3997,    3996,    3956,    3998,    4648,    4688,    4689,    4686,    5517,    5516,    5496,    5497
     371,    1927,    1928,    1948,    1947,     211,     212,     232,     231,    3999,    3998,    3958,    4000,    4646,    4686,    4687,    4684,    5518,    5517,    5497,    5498
     372,    1926,    1927,    1947,    1946,     210,     211,     231,     230,    4001,    4000,    3960,    4002,    4644,    4684,    4685,    4682,    5519,    5518,    5498,    5499
     373,    1925,    1926,    1946,    1945,     209,     210,     230,     229,    4003,    4002,    3962,    4004,    4642,    4682,    4683,    4680,    5520,    5519,    5499,    5500
     374,    1924,    1925,    1945,    1944,     208,     209,     229,     228,    4005,    4004,    3964,    4006,    4640,    4680,    4681,    4678,    5521,    5520,    5500,    5501
     375,    1923,    1924,    1944,    1943,     207,     208,     228,     227,    4007,    4006,    3966,    4008,    4638,    4678,    4679,    4676,    5522,    5521,    5501,    5502
     376,    1922,    1923,    1943,    1942,     206,     207,     227,     226,    4009,    4008,    3968,    4010,    4636,    4676,    4677,    4674,    5523,    5522,    5502,    5503
     377,    1921,    1922,    1942,    1941,     205,     206,     226,     225,    4011,    4010,    3970,    4012,    4634,    4674,    4675,    4672,    5524,    5523,    5503,    5504
     378,    1732,    1921,    1941,    1731,      71,     205,     225,      72,    4013,    4012,    3972,    3390,    4632,    4672,    4673,    4288,    4308,    5524,    5504,    4309
     379,    1920,    1775,    1774,    1940,     204,      29,      30,     224,    4014,    3433,    3973,    4015,    4630,    4370,    4671,    4669,    5525,    5230,    5231,    5505
     380,    1919,    1920,    1940,    1939,     203,     204,     224,     223,    4016,    4015,    3975,    4017,    4629,    4669,    4670,    4667,    5526,    5525,    5505,    5506
     381,    1918,    1919,    1939,    1938,     202,     203,     223,     222,    4018,    4017,    3977,    4019,    4627,    4667,    4668,    4665,    5527,    5526,    5506,    5507
     382,    1917,    1918,    1938,    1937,     201,     202,     222,     221,    4020,    4019,    3979,    4021,    4625,    4665,    4666,    4663,    5528,    5527,    5507,    5508
     383,    1916,    1917,    1937,    1936,     200,     201,     221,     220,    4022,    4021,    3981,    4023,    4623,    4663,    4664,    4661,    5529,    5528,    5508,    5509
     384,    1915,    1916,    1936,    1935,     199,     200,     220,     219,    4024,    4023,    3983,    4025,    4621,    4661,    4662,    4659,    5530,    5529,    5509,    5510
     385,    1914,    1915,    1935,    1934,     198,     199,     219,     218,    4026,    4025,    3985,    4027,    4619,    4659,    4660,    4657,    5531,    5530,    5510,    5511
     386,    1913,    1914,    1934,    1933,     197,     198,     218,     217,    4028,    4027,    3987,    4029,    4617,    4657,    4658,    4655,    5532,    5531,    5511,    5512
     387,    1912,    1913,    1933,    1932,     196,     197,     217,     216,    4030,    4029,    3989,    4031,    4615,    4655,    4656,    4653,    5533,    5532,    5512,    5513
     388,    1911,    1912,    1932,    1931,     195,     196,     216,     215,    4032,    4031,    3991,    4033,    4613,    4653,    4654,    4651,    5534,    5533,    5513,    5514
     389,    1910,    1911,    1931,    1930,     194,     195,     215,     214,    4034,    4033,    3993,    4035,    4611,    4651,    4652,    4649,    5535,    5534,    5514,    5515
     390,    1909,    1910,    1930,    1929,     193,     194,     214,     213,    4036,    4035,    3995,    4037,    4609,    4649,    4650,    4647,    5536,    5535,    5515,    5516
     391,    1908,    1909,    1929,    1928,     192,     193,     213,     212,    4038,    4037,    3997,    4039,    4607,    4647,    4648,    4645,    5537,    5536,    5516,    5517
     392,    1907,    1908,    1928,    1927,     191,     192,     212,     211,    4040,    4039,    3999,    4041,    4605,    4645,    4646,    4643,    5538,    5537,    5517,    5518
     393,    1906,    1907,    1927,    1926,     190,     191,     211,     210,    4042,    4041,    4001,    4043,    4603,    4643,    4644,    4641,    5539,    5538,    5518,    5519
     394,    1905,    1906,    1926,    1925,     189,     190,     210,     209,    4044,    4043,    4003,    4045,    4601,    4641,    4642,    4639,    5540,    5539,    5519,    5520
     395,    1904,    1905,    1925,    1924,     188,     189,     209,     208,    4046,    4045,    4005,    4047,    4599,    4639,    4640,    4637,    5541,    5540,    5520,    5521
     396,    1903,    1904,    1924,    1923,     187,     188,     208,     207,    4048,    4047,    4007,    4049,    4597,    4637,    4638,    4635,    5542,    5541,    5521,    5522
     397,    1902,    1903,    1923,    1922,     186,     187,     207,     206,    4050,    4049,    4009,    4051,    4595,    4635,    4636,    4633,    5543,    5542,    5522,    5523
     398,    1901,    1902,    1922,    1921,     185,     186,     206,     205,    4052,    4051,    4011,    4053,    4593,    4633,    4634,    4631,    5544,    5543,    5523,    5524
     399,    1733,    1901,    1921,    1732,      70,     185,     205,      71,    4054,    4053,    4013,    3391,    4591,    4631,    4632,    4287,    4307,    5544,    5524,    4308
     400,    1900,    1776,    1775,    1920,     184,      28,      29,     204,    4055,    3434,    4014,    4056,    4589,    4369,    4630,    4628,    5545,    5229,    5230,    5525
     401,    1899,    1900,    1920,    1919,     183,     184,     204,     203,    4057,    4056,    4016,    4058,    4588,    4628,    4629,    4626,    5546,    5545,    5525,    5526
     402,    1898,    1899,    1919,    1918,     182,     183,     203,     202,    4059,    4058,    4018,    4060,    4586,    4626,    4627,    4624,    5547,    5546,    5526,    5527
     403,    1897,    1898,    1918,    1917,     181,     182,     202,     201,    4061,    4060,    4020,    4062,    4584,    4624,    4625,    4622,    5548,    5547,    5527,    5528
     404,    1896,    1897,    1917,    1916,     180,     181,     201,     200,    4063,    4062,    4022,    4064,    4582,    4622,    4623,    4620,    5549,    5548,    5528,    5529
     405,    1895,    1896,    1916,    1915,     179,     180,     200,     199,    4065,    4064,    4024,    4066,    4580,    4620,    4621,    4618,    5550,    5549,    5529,    5530
     406,    1894,    1895,    1915,    1914,     178,     179,     199,     198,    4067,    4066,    4026,    4068,    4578,    4618,    4619,    4616,    5551,    5550,    5530,    5531
     407,    1893,    1894,    1914,    1913,     177,     178,     198,     197,    4069,    4068,    4028,    4070,    4576,    4616,    4617,    4614,    5552,    5551,    5531,    5532
     408,    1892,    1893,    1913,    1912,     176,     177,     197,     196,    4071,    4070,    4030,    4072,    4574,    4614,    4615,    4612,    5553,    5552,    5532,    5533
     409,    1891,    1892,    1912,    1911,     175,     176,     196,     195,    4073,    4072,    4032,    4074,    4572,    4612,    4613,    4610,    5554,    5553,    5533,    5534
     410,    1890,    1891,    1911,    1910,     174,     175,     195,     194,    4075,    4074,    4034,    4076,    4570,    4610,    4611,    4608,    5555,    5554,    5534,    5535
     411,    1889,    1890,    1910,    1909,     173,     174,     194,     193,    4077,    4076,    4036,    4078,    4568,    4608,    4609,    4606,    5556,    5555,    5535,    5536
     412,    1888,    1889,    1909,    1908,     172,     173,     193,     192,    4079,    4078,    4038,    4080,    4566,    4606,    4607,    4604,    5557,    5556,    5536,    5537
     413,    1887,    1888,    1908,    1907,     171,     172,     192,     191,    4081,    4080,    4040,    4082,    4564,    4604,    4605,    4602,    5558,    5557,    5537,    5538
     414,    1886,    1887,    1907,    1906,     170,     171,     191,     190,    4083,    4082,    4042,    4084,    4562,    4602,    4603,    4600,    5559,    5558,    5538,    5539
     415,    1885,    1886,    1906,    1905,     169,     170,     190,     189,    4085,    4084,    4044,    4086,    4560,    4600,    4601,    4598,    5560,    5559,    5539,    5540
     416,    1884,    1885,    1905,    1904,     168,     169,     189,     188,    4087,    4086,    4046,    4088,    4558,    4598,    4599,    4596,    5561,    5560,    5540,    5541
     417,    1883,    1884,    1904,    1903,     167,     168,     188,     187,    4089,    4088,    4048,    4090,    4556,    4596,    4597,    4594,    5562,    5561,    5541,    5542
     418,    1882,    1883,    1903,    1902,     166,     167,     187,     186,    4091,    4090,    4050,    4092,    4554,    4594,    4595,    4592,    5563,    5562,    5542,    5543
     419,    1881,    1882,    1902,    1901,     165,     166,     186,     185,    4093,    4092,    4052,    4094,    4552,    4592,    4593,    4590,    5564,    5563,    5543,    5544
     420,    1734,    1881,    1901,    1733,      69,     165,     185,      70,    4095,    4094,    4054,    3392,    4550,    4590,    4591,    4286,    4306,    5564,    5544,    4307
     421,    1880,    1777,    1776,    1900,     164,      27,      28,     184,    4096,    3435,    4055,    4097,    4548,    4368,    4589,    4587,    5565,    5228,    5229,    5545
     422,    1879,    1880,    1900,    1899,     163,     164,     184,     183,    4098,    4097,    4057,    4099,    4547,    4587,    4588,    4585,    5566,    5565,    5545,    5546
     423,    1878,    1879,    1899,    1898,     162,     163,     183,     182,    4100,    4099,    4059,    4101,    4545,    4585,    4586,    4583,    5567,    5566,    5546,    5547
     424,    1877,    1878,    1898,    1897,     161,     162,     182,     181,    4102,    4101,    4061,    4103,    4543,    4583,    4584,    4581,    5568,    5567,    5547,    5548
     425,    1876,    1877,    1897,    1896,     160,     161,     181,     180,    4104,    4103,    4063,    4105,    4541,    4581,    4582,    4579,    5569,    5568,    5548,    5549
     426,    1875,    1876,    1896,    1895,     159,     160,     180,     179,    4106,    4105,    4065,    4107,    4539,    4579,    4580,    4577,    5570,    5569,    5549,    5550
     427,    1874,    1875,    1895,    1894,     158,     159,     179,     178,    4108,    4107,    4067,    4109,    4537,    4577,    4578,    4575,    5571,    5570,    5550,    5551
     428,    1873,    1874,    1894,    1893,     157,     158,     178,     177,    4110,    4109,    4069,    4111,    4535,    4575,    4576,    4573,    5572,    5571,    5551,    5552
     429,    1872,    1873,    1893,    1892,     156,     157,     177,     176,    4112,    4111,    4071,    4113,    4533,    4573,    4574,    4571,    5573,    5572,    5552,    5553
     430,    1871,    1872,    1892,    1891,     155,     156,     176,     175,    4114,    4113,    4073,    4115,    4531,    4571,    4572,    4569,    5574,    5573,    5553,    5554
     431,    1870,    1871,    1891,    1890,     154,     155,     175,     174,    4116,    4115,    4075,    4117,    4529,    4569,    4570,    4567,    5575,    5574,    5554,    5555
     432,    1869,    1870,    1890,    1889,     153,     154,     174,     173,    4118,    4117,    4077,    4119,    4527,    4567,    4568,    4565,    5576,    5575,    5555,    5556
     433,    1868,    1869,    1889,    1888,     152,     153,     173,     172,    4120,    4119,    4079,    4121,    4525,    4565,    4566,    4563,    5577,    5576,    5556,    5557
     434,    1867,    1868,    1888,    1887,     151,     152,     172,     171,    4122,    4121,    4081,    4123,    4523,    4563,    4564,    4561,    5578,    5577,    5557,    5558
     435,    1866,    1867,    1887,    1886,     150,     151,     171,     170,    4124,    4123,    4083,    4125,    4521,    4561,    4562,    4559,    5579,    5578,    5558,    5559
     436,    1865,    1866,    1886,    1885,     149,     150,     170,     169,    4126,    4125,    4085,    4127,    4519,    4559,    4560,    4557,    5580,    5579,    5559,    5560
     437,    1864,    1865,    1885,    1884,     148,     149,     169,     168,    4128,    4127,    4087,    4129,    4517,    4557,    4558,    4555,    5581,    5580,    5560,    5561
     438,    1863,    1864,    1884,    1883,     147,     148,     168,     167,    4130,    4129,    4089,    4131,    4515,    4555,    4556,    4553,    5582,    5581,    5561,    5562
     439,    1862,    1863,    1883,    1882,     146,     147,     167,     166,    4132,    4131,    4091,    4133,    4513,    4553,    4554,    4551,    5583,    5582,    5562,    5563
     440,    1861,    1862,    1882,    1881,     145,     146,     166,     165,    4134,    4133,    4093,    4135,    4511,    4551,    4552,    4549,    5584,    5583,    5563,    5564
     441,    1735,    1861,    1881,    1734,      68,     145,     165,      69,    4136,    4135,    4095,    3393,    4509,    4549,    4550,    4285,    4305,    5584,    5564,    4306
     442,    1860,    1778,    1777,    1880,     144,      26,      27,     164,    4137,    3436,    4096,    4138,    4507,    4367,    4548,    4546,    5585,    5227,    5228,    5565
     443,    1859,    1860,    1880,    1879,     143,     144,     164,     163,    4139,    4138,    4098,    4140,    4506,    4546,    4547,    4544,    5586,    5585,    5565,    5566
     444,    1858,    1859,    1879,    1878,     142,     143,     163,     162,    4141,    4140,    4100,    4142,    4504,    4544,    4545,    4542,    5587,    5586,    5566,    5567
     445,    1857,    1858,    1878,    1877,     141,     142,     162,     161,    4143,    4142,    4102,    4144,    4502,    4542,    4543,    4540,    5588,    5587,    5567,    5568
     446,    1856,    1857,    1877,    1876,     140,     141,     161,     160,    4145,    4144,    4104,    4146,    4500,    4540,    4541,    4538,    5589,    5588,    5568,    5569
     447,    1855,    1856,    1876,    1875,     139,     140,     160,     159,    4147,    4146,    4106,    4148,    4498,    4538,    4539,    4536,    5590,    5589,    5569,    5570
     448,    1854,    1855,    1875,    1874,     138,     139,     159,     158,    4149,    4148,    4108,    4150,    4496,    4536,    4537,    4534,    5591,    5590,    5570,    5571
     449,    1853,    1854,    1874,    1873,     137,     138,     158,     157,    4151,    4150,    4110,    4152,    4494,    4534,    4535,    4532,    5592,    5591,    5571,    5572
     450,    1852,    1853,    1873,    1872,     136,     137,     157,     156,    4153,    4152,    4112,    4154,    4492,    4532,    4533,    4530,    5593,    5592,    5572,    5573
     451,    1851,    1852,    1872,    1871,     135,     136,     156,     155,    4155,    4154,    4114,    4156,    4490,    4530,    4531,    4528,    5594,    5593,    5573,    5574
     452,    1850,    1851,    1871,    1870,     134,     135,     155,     154,    4157,    4156,    4116,    4158,    4488,    4528,    4529,    4526,    5595,    5594,    5574,    5575
     453,    1849,    1850,    1870,    1869,     133,     134,     154,     153,    4159,    4158,    4118,    4160,    4486,    4526,    4527,    4524,    5596,    5595,    5575,    5576
     454,    1848,    1849,    1869,    1868,     132,     133,     153,     152,    4161,    4160,    4120,    4162,    4484,    4524,    4525,    4522,    5597,    5596,    5576,    5577
     455,    1847,    1848,    1868,    1867,     131,     132,     152,     151,    4163,    4162,    4122,    4164,    4482,    4522,    4523,    4520,    5598,    5597,    5577,    5578
     456,    1846,    1847,    1867,    1866,     130,     131,     151,     150,    4165,    4164,    4124,    4166,    4480,    4520,    4521,    4518,    5599,    5598,    5578,    5579
     457,    1845,    1846,    1866,    1865,     129,     130,     150,     149,    4167,    4166,    4126,    4168,    4478,    4518,    4519,    4516,    5600,    5599,    5579,    5580
     458,    1844,    1845,    1865,    1864,     128,     129,     149,     148,    4169,    4168,    4128,    4170,    4476,    4516,    4517,    4514,    5601,    5600,    5580,    5581
     459,    1843,    1844,    1864,    1863,     127,     128,     148,     147,    4171,    4170,    4130,    4172,    4474,    4514,    4515,    4512,    5602,    5601,    5581,    5582
     460,    1842,    1843,    1863,    1862,     126,     127,     147,     146,    4173,    4172,    4132,    4174,    4472,    4512,    4513,    4510,    5603,    5602,    5582,    5583
     461,    1841,    1842,    1862,    1861,     125,     126,     146,     145,    4175,    4174,    4134,    4176,    4470,    4510,    4511,    4508,    5604,    5603,    5583,    5584
     462,    1736,    1841,    1861,    1735,      67,     125,     145,      68,    4177,    4176,    4136,    3394,    4468,    4508,    4509,    4284,    4304,    5604,    5584,    4305
     463,    1840,    1779,    1778,    1860,     124,      25,      26,     144,    4178,    3437,    4137,    4179,    4466,    4366,    4507,    4505,    5605,    5226,    5227,    5585
     464,    1839,    1840,    1860,    1859,     123,     124,     144,     143,    4180,    4179,    4139,    4181,    4465,    4505,    4506,    4503,    5606,    5605,    5585,    5586
     465,    1838,    1839,    1859,    1858,     122,     123,     143,     142,    4182,    4181,    4141,    4183,    4463,    4503,    4504,    4501,    5607,    5606,    5586,    5587
     466,    1837,    1838,    1858,    1857,     121,     122,     142,     141,    4184,    4183,    4143,    4185,    4461,    4501,    4502,    4499,    5608,    5607,    5587,    5588
     467,    1836,    1837,    1857,    1856,     120,     121,     141,     140,    4186,    4185,    4145,    4187,    4459,    4499,    4500,    4497,    5609,    5608,    5588,    5589
     468,    1835,    1836,    1856,    1855,     119,     120,     140,     139,    4188,    4187,    4147,    4189,    4457,    4497,    4498,    4495,    5610,    5609,    5589,    5590
     469,    1834,    1835,    1855,    1854,     118,     119,     139,     138,    4190,    4189,    4149,    4191,    4455,    4495,    4496,    4493,    5611,    5610,    5590,    5591
     470,    1833,    1834,    1854,    1853,     117,     118,     138,     137,    4192,    4191,    4151,    4193,    4453,    4493,    4494,    4491,    5612,    5611,    5591,    5592
     471,    1832,    1833,    1853,    1852,     116,     117,     137,     136,    4194,    4193,    4153,    4195,    4451,    4491,    4492,    4489,    5613,    5612,    5592,    5593
     472,    1831,    1832,    1852,    1851,     115,     116,     136,     135,    4196,    4195,    4155,    4197,    4449,    4489,    4490,    4487,    5614,    5613,    5593,    5594
     473,    1830,    1831,    1851,    1850,     114,     115,     135,     134,    4198,    4197,    4157,    4199,    4447,    4487,    4488,    4485,    5615,    5614,    5594,    5595
     474,    1829,    1830,    1850,    1849,     113,     114,     134,     133,    4200,    4199,    4159,    4201,    4445,    4485,    4486,    4483,    5616,    5615,    5595,    5596
     475,    1828,    1829,    1849,    1848,     112,     113,     133,     132,    4202,    4201,    4161,    4203,    4443,    4483,    4484,    4481,    5617,    5616,    5596,    5597
     476,    1827,    1828,    1848,    1847,     111,     112,     132,     131,    4204,    4203,    4163,    4205,    4441,    4481,    4482,    4479,    5618,    5617,    5597,    5598
     477,    1826,    1827,    1847,    1846,     110,     111,     131,     130,    4206,    4205,    4165,    4207,    4439,    4479,    4480,    4477,    5619,    5618,    5598,    5599
     478,    1825,    1826,    1846,    1845,     109,     110,     130,     129,    4208,    4207,    4167,    4209,    4437,    4477,    4478,    4475,    5620,    5619,    5599,    5600
     479,    1824,    1825,    1845,    1844,     108,     109,     129,     128,    4210,    4209,    4169,    4211,    4435,    4475,    4476,    4473,    5621,    5620,    5600,    5601
     480,    1823,    1824,    1844,    1843,     107,     108,     128,     127,    4212,    4211,    4171,    4213,    4433,    4473,    4474,    4471,    5622,    5621,    5601,    5602
     481,    1822,    1823,    1843,    1842,     106,     107,     127,     126,    4214,    4213,    4173,    4215,    4431,    4471,    4472,    4469,    5623,    5622,    5602,    5603
     482,    1821,    1822,    1842,    1841,     105,     106,     126,     125,    4216,    4215,    4175,    4217,    4429,    4469,    4470,    4467,    5624,    5623,    5603,    5604
     483,    1737,    1821,    1841,    1736,      66,     105,     125,      67,    4218,    4217,    4177,    3395,    4427,    4467,    4468,    4283,    4303,    5624,    5604,    4304
     484,    1820,    1780,    1779,    1840,     104,      24,      25,     124,    4219,    3438,    4178,    4220,    4425,    4365,    4466,    4464,    5625,    5225,    5226,    5605
     485,    1819,    1820,    1840,    1839,     103,     104,     124,     123,    4221,    4220,    4180,    4222,    4424,    4464,    4465,    4462,    5626,    5625,    5605,    5606
     486,    1818,    1819,    1839,    1838,     102,     103,     123,     122,    4223,    4222,    4182,    4224,    4422,    4462,    4463,    4460,    5627,    5626,    5606,    5607
     487,    1817,    1818,    1838,    1837,     101,     102,     122,     121,    4225,    4224,    4184,    4226,    4420,    4460,    4461,    4458,    5628,    5627,    5607,    5608
     488,    1816,    1817,    1837,    1836,     100,     101,     121,     120,    4227,    4226,    4186,    4228,    4418,    4458,    4459,    4456,    5629,    5628,    5608,    5609
     489,    1815,    1816,    1836,    1835,      99,     100,     120,     119,    4229,    4228,    4188,    4230,    4416,    4456,    4457,    4454,    5630,    5629,    5609,    5610
     490,    1814,    1815,    1835,    1834,      98,      99,     119,     118,    4231,    4230,    4190,    4232,    4414,    4454,    4455,    4452,    5631,    5630,    5610,    5611
     491,    1813,    1814,    1834,    1833,      97,      98,     118,     117,    4233,    4232,    4192,    4234,    4412,    4452,    4453,    4450,    5632,    5631,    5611,    5612
     492,    1812,    1813,    1833,    1832,      96,      97,     117,     116,    4235,    4234,    4194,    4236,    4410,    4450,    4451,    4448,    5633,    5632,    5612,    5613
     493,    1811,    1812,    1832,    1831,      95,      96,     116,     115,    4237,    4236,    4196,    4238,    4408,    4448,    4449,    4446,    5634,    5633,    5613,    5614
     494,    1810,    1811,    1831,    1830,      94,      95,     115,     114,    4239,    4238,    4198,    4240,    4406,    4446,    4447,    4444,    5635,    5634,    5614,    5615
     495,    1809,    1810,    1830,    1829,      93,      94,     114,     113,    4241,    4240,    4200,    4242,    4404,    4444,    4445,    4442,    5636,    5635,    5615,    5616
     496,    1808,    1809,    1829,    1828,      92,      93,     113,     112,    4243,    4242,    4202,    4244,    4402,    4442,    4443,    4440,    5637,    5636,    5616,    5617
     497,    1807,    1808,    1828,    1827,      91,      92,     112,     111,    4245,    4244,    4204,    4246,    4400,    4440,    4441,    4438,    5638,    5637,    5617,    5618
     498,    1806,    1807,    1827,    1826,      90,      91,     111,     110,    4247,    4246,    4206,    4248,    4398,    4438,    4439,    4436,    5639,    5638,    5618,    5619
     499,    1805,    1806,    1826,    1825,      89,      90,     110,     109,    4249,    4248,    4208,    4250,    4396,    4436,    4437,    4434,    5640,    5639,    5619,    5620
     500,    1804,    1805,    1825,    1824,      88,      89,     109,     108,    4251,    4250,    4210,    4252,    4394,    4434,    4435,    4432,    5641,    5640,    5620,    5621
     501,    1803,    1804,    1824,    1823,      87,      88,     108,     107,    4253,    4252,    4212,    4254,    4392,    4432,    4433,    4430,    5642,    5641,    5621,    5622
     502,    1802,    1803,    1823,    1822,      86,      87,     107,     106,    4255,    4254,    4214,    4256,    4390,    4430,    4431,    4428,    5643,    5642,    5622,    5623
     503,    1801,    1802,    1822,    1821,      85,      86,     106,     105,    4257,    4256,    4216,    4258,    4388,    4428,    4429,    4426,    5644,    5643,    5623,    5624
     504,    1738,    1801,    1821,    1737,      65,      85,     105,      66,    4259,    4258,    4218,    3396,    4386,    4426,    4427,    4282,    4302,    5644,    5624,    4303
     505,    1800,    1760,    1780,    1820,       3,       1,      24,     104,    3356,    3439,    4219,    4260,    3314,    4364,    4425,    4423,    3376,    3335,    5225,    5625
     506,    1799,    1800,    1820,    1819,       4,       3,     104,     103,    3355,    4260,    4221,    4261,    3315,    4423,    4424,    4421,    3375,    3376,    5625,    5626
     507,    1798,    1799,    1819,    1818,       5,       4,     103,     102,    3354,    4261,    4223,    4262,    3316,    4421,    4422,    4419,    3374,    3375,    5626,    5627
     508,    1797,    1798,    1818,    1817,       6,       5,     102,     101,    3353,    4262,    4225,    4263,    3317,    4419,    4420,    4417,    3373,    3374,    5627,    5628
     509,    1796,    1797,    1817,    1816,       7,       6,     101,     100,    3352,    4263,    4227,    4264,    3318,    4417,    4418,    4415,    3372,    3373,    5628,    5629
     510,    1795,    1796,    1816,    1815,       8,       7,     100,      99,    3351,    4264,    4229,    4265,    3319,    4415,    4416,    4413,    3371,    3372,    5629,    5630
     511,    1794,    1795,    1815,    1814,       9,       8,      99,      98,    3350,    4265,    4231,    4266,    3320,    4413,    4414,    4411,    3370,    3371,    5630,    5631
     512,    1793,    1794,    1814,    1813,      10,       9,      98,      97,    3349,    4266,    4233,    4267,    3321,    4411,    4412,    4409,    3369,    3370,    5631,    5632
     513,    1792,    1793,    1813,    1812,      11,      10,      97,      96,    3348,    4267,    4235,    4268,    3322,    4409,    4410,    4407,    3368,    3369,    5632,    5633
     514,    1791,    1792,    1812,    1811,      12,      11,      96,      95,    3347,    4268,    4237,    4269,    3323,    4407,    4408,    4405,    3367,    3368,    5633,    5634
     515,    1790,    1791,    1811,    1810,      13,      12,      95,      94,    3346,    4269,    4239,    4270,    3324,    4405,    4406,    4403,    3366,    3367,    5634,    5635
     516,    1789,    1790,    1810,    1809,      14,      13,      94,      93,    3345,    4270,    4241,    4271,    3325,    4403,    4404,    4401,    3365,    3366,    5635,    5636
     517,    1788,    1789,    1809,    1808,      15,      14,      93,      92,    3344,    4271,    4243,    4272,    3326,    4401,    4402,    4399,    3364,    3365,    5636,    5637
     518,    1787,    1788,    1808,    1807,      16,      15,      92,      91,    3343,    4272,    4245,    4273,    3327,    4399,    4400,    4397,    3363,    3364,    5637,    5638
     519,    1786,    1787,    1807,    1806,      17,      16,      91,      90,    3342,    4273,    4247,    4274,    3328,    4397,    4398,    4395,    3362,    3363,    5638,    5639
     520,    1785,    1786,    1806,    1805,      18,      17,      90,      89,    3341,    4274,    4249,    4275,    3329,    4395,    4396,    4393,    3361,    3362,    5639,    5640
     521,    1784,    1785,    1805,    1804,      19,      18,      89,      88,    3340,    4275,    4251,    4276,    3330,    4393,    4394,    4391,    3360,    3361,    5640,    5641
     522,    1783,    1784,    1804,    1803,      20,      19,      88,      87,    3339,    4276,    4253,    4277,    3331,    4391,    4392,    4389,    3359,    3360,    5641,    5642
     523,    1782,    1783,    1803,    1802,      21,      20,      87,      86,    3338,    4277,    4255,    4278,    3332,    4389,    4390,    4387,    3358,    3359,    5642,    5643
     524,    1781,    1782,    1802,    1801,      22,      21,      86,      85,    3337,    4278,    4257,    4279,    3333,    4387,    4388,    4385,    3357,    3358,    5643,    5644
     525,    1717,    1781,    1801,    1738,       2,      22,      85,      65,    3336,    4279,    4259,    3397,    3334,    4385,    4386,    4281,    3313,    3357,    5644,    4302
     526,    2552,    2232,    1717,    1738,     946,     595,       2,      65,    6405,    6371,    3397,    6406,    6334,    5645,    4281,    6354,    7097,    6387,    3313,    4302
     527,    2551,    2552,    1738,    1737,     945,     946,      65,      66,    6407,    6406,    3396,    6408,    6333,    6354,    4282,    6353,    7098,    7097,    4302,    4303
     528,    2550,    2551,    1737,    1736,     944,     945,      66,      67,    6409,    6408,    3395,    6410,    6331,    6353,    4283,    6352,    7099,    7098,    4303,    4304
     529,    2549,    2550,    1736,    1735,     943,     944,      67,      68,    6411,    6410,    3394,    6412,    6329,    6352,    4284,    6351,    7100,    7099,    4304,    4305
     530,    2548,    2549,    1735,    1734,     942,     943,      68,      69,    6413,    6412,    3393,    6414,    6327,    6351,    4285,    6350,    7101,    7100,    4305,    4306
     531,    2547,    2548,    1734,    1733,     941,     942,      69,      70,    6415,    6414,    3392,    6416,    6325,    6350,    4286,    6349,    7102,    7101,    4306,    4307
     532,    2546,    2547,    1733,    1732,     940,     941,      70,      71,    6417,    6416,    3391,    6418,    6323,    6349,    4287,    6348,    7103,    7102,    4307,    4308
     533,    2545,    2546,    1732,    1731,     939,     940,      71,      72,    6419,    6418,    3390,    6420,    6321,    6348,    4288,    6347,    7104,    7103,    4308,    4309
     534,    2544,    2545,    1731,    1730,     938,     939,      72,      73,    6421,    6420,    3389,    6422,    6319,    6347,    4289,    6346,    7105,    7104,    4309,    4310
     535,    2543,    2544,    1730,    1729,     937,     938,      73,      74,    6423,    6422,    3388,    6424,    6317,    6346,    4290,    6345,    7106,    7105,    4310,    4311
     536,    2542,    2543,    1729,    1728,     936,     937,      74,      75,    6425,    6424,    3387,    6426,    6315,    6345,    4291,    6344,    7107,    7106,    4311,    4312
     537,    2541,    2542,    1728,    1727,     935,     936,      75,      76,    6427,    6426,    3386,    6428,    6313,    6344,    4292,    6343,    7108,    7107,    4312,    4313
     538,    2540,    2541,    1727,    1726,     934,     935,      76,      77,    6429,    6428,    3385,    6430,    6311,    6343,    4293,    6342,    7109,    7108,    4313,    4314
     539,    2539,    2540,    1726,    1725,     933,     934,      77,      78,    6431,    6430,    3384,    6432,    6309,    6342,    4294,    6341,    7110,    7109,    4314,    4315
     540,    2538,    2539,    1725,    1724,     932,     933,      78,      79,    6433,    6432,    3383,    6434,    6307,    6341,    4295,    6340,    7111,    7110,    4315,    4316
     541,    2537,    2538,    1724,    1723,     931,     932,      79,      80,    6435,    6434,    3382,    6436,    6305,    6340,    4296,    6339,    7112,    7111,    4316,    4317
     542,    2536,    2537,    1723,    1722,     930,     931,      80,      81,    6437,    6436,    3381,    6438,    6303,    6339,    4297,    6338,    7113,    7112,    4317,    4318
     543,    2535,    2536,    1722,    1721,     929,     930,      81,      82,    6439,    6438,    3380,    6440,    6301,    6338,    4298,    6337,    7114,    7113,    4318,    4319
     544,    2534,    2535,    1721,    1720,     928,     929,      82,      83,    6441,    6440,    3379,    6442,    6299,    6337,    4299,    6336,    7115,    7114,    4319,    4320
     545,    2533,    2534,    1720,    1719,     927,     928,      83,      84,    6443,    6442,    3378,    6444,    6297,    6336,    4300,    6335,    7116,    7115,    4320,    4321
     546,    2216,    2533,    1719,    1718,     611,     927,      84,      44,    6445,    6444,    3377,    6404,    6295,    6335,    4301,    5662,    7096,    7116,    4321,    4280
     547,    2532,    2231,    2232,    2552,     926,     596,     595,     946,    6446,    6370,    6405,    6447,    6293,    5646,    6334,    6332,    7117,    6386,    6387,    7097
     548,    2531,    2532,    2552,    2551,     925,     926,     946,     945,    6448,    6447,    6407,    6449,    6292,    6332,    6333,    6330,    7118,    7117,    7097,    7098
     549,    2530,    2531,    2551,    2550,     924,     925,     945,     944,    6450,    6449,    6409,    6451,    6290,    6330,    6331,    6328,    7119,    7118,    7098,    7099
     550,    2529,    2530,    2550,    2549,     923,     924,     944,     943,    6452,    6451,    6411,    6453,    6288,    6328,    6329,    6326,    7120,    7119,    7099,    7100
     551,    2528,    2529,    2549,    2548,     922,     923,     943,     942,    6454,    6453,    6413,    6455,    6286,    6326,    6327,    6324,    7121,    7120,    7100,    7101
     552,    2527,    2528,    2548,    2547,     921,     922,     942,     941,    6456,    6455,    6415,    6457,    6284,    6324,    6325,    6322,    7122,    7121,    7101,    7102
     553,    2526,    2527,    2547,    2546,     920,     921,     941,     940,    6458,    6457,    6417,    6459,    6282,    6322,    6323,    6320,    7123,    7122,    7102,    7103
     554,    2525,    2526,    2546,    2545,     919,     920,     940,     939,    6460,    6459,    6419,    6461,    6280,    6320,    6321,    6318,    7124,    7123,    7103,    7104
     555,    2524,    2525,    2545,    2544,     918,     919,     939,     938,    6462,    6461,    6421,    6463,    6278,    6318,    6319,    6316,    7125,    7124,    7104,    7105
     556,    2523,    2524,    2544,    2543,     917,     918,     938,     937,    6464,    6463,    6423,    6465,    6276,    6316,    6317,    6314,    7126,    7125,    7105,    7106
     557,    2522,    2523,    2543,    2542,     916,     917,     937,     936,    6466,    6465,    6425,    6467,    6274,    6314,    6315,    6312,    7127,    7126,    7106,    7107
     558,    2521,    2522,    2542,    2541,     915,     916,     936,     935,    6468,    6467,    6427,    6469,    6272,    6312,    6313,    6310,    7128,    7127,    7107,    7108
     559,    2520,    2521,    2541,    2540,     914,     915,     935,     934,    6470,    6469,    6429,    6471,    6270,    6310,    6311,    6308,    7129,    7128,    7108,    7109
     560,    2519,    2520,    2540,    2539,     913,     914,     934,     933,    6472,    6471,    6431,    6473,    6268,    6308,    6309,    6306,    7130,    7129,    7109,    7110
     561,    2518,    2519,    2539,    2538,     912,     913,     933,     932,    6474,    6473,    6433,    6475,    6266,    6306,    6307,    6304,    7131,    7130,    7110,    7111
     562,    2517,    2518,    2538,    2537,     911,     912,     932,     931,    6476,    6475,    6435,    6477,    6264,    6304,    6305,    6302,    7132,    7131,    7111,    7112
     563,    2516,    2517,    2537,    2536,     910,     911,     931,     930,    6478,    6477,    6437,    6479,    6262,    6302,    6303,    6300,    7133,    7132,    7112,    7113
     564,    2515,    2516,    2536,    2535,     909,     910,     930,     929,    6480,    6479,    6439,    6481,    6260,    6300,    6301,    6298,    7134,    7133,    7113,    7114
     565,    2514,    2515,    2535,    2534,     908,     909,     929,     928,    6482,    6481,    6441,    6483,    6258,    6298,    6299,    6296,    7135,    7134,    7114,    7115
     566,    2513,    2514,    2534,    2533,     907,     908,     928,     927,    6484,    6483,    6443,    6485,    6256,    6296,    6297,    6294,    7136,    7135,    7115,    7116
     567,    2215,    2513,    2533,    2216,     612,     907,     927,     611,    6486,    6485,    6445,    6403,    6254,    6294,    6295,    5663,    7095,    7136,    7116,    7096
     568,    2512,    2230,    2231,    2532,     906,     597,     596,     926,    6487,    6369,    6446,    6488,    6252,    5647,    6293,    6291,    7137,    6385,    6386,    7117
     569,    2511,    2512,    2532,    2531,     905,     906,     926,     925,    6489,    6488,    6448,    6490,    6251,    6291,    6292,    6289,    7138,    7137,    7117,    7118
     570,    2510,    2511,    2531,    2530,     904,     905,     925,     924,    6491,    6490,    6450,    6492,    6249,    6289,    6290,    6287,    7139,    7138,    7118,    7119
     571,    2509,    2510,    2530,    2529,     903,     904,     924,     923,    6493,    6492,    6452,    6494,    6247,    6287,    6288,    6285,    7140,    7139,    7119,    7120
     572,    2508,    2509,    2529,    2528,     902,     903,     923,     922,    6495,    6494,    6454,    6496,    6245,    6285,    6286,    6283,    7141,    7140,    7120,    7121
     573,    2507,    2508,    2528,    2527,     901,     902,     922,     921,    6497,    6496,    6456,    6498,    6243,    6283,    6284,    6281,    7142,    7141,    7121,    7122
     574,    2506,    2507,    2527,    2526,     900,     901,     921,     920,    6499,    6498,    6458,    6500,    6241,    6281,    6282,    6279,    7143,    7142,    7122,    7123
     575,    2505,    2506,    2526,    2525,     899,     900,     920,     919,    6501,    6500,    6460,    6502,    6239,    6279,    6280,    6277,    7144,    7143,    7123,    7124
     576,    2504,    2505,    2525,    2524,     898,     899,     919,     918,    6503,    6502,    6462,    6504,    6237,    6277,    6278,    6275,    7145,    7144,    7124,    7125
     577,    2503,    2504,    2524,    2523,     897,     898,     918,     917,    6505,    6504,    6464,    6506,    6235,    6275,    6276,    6273,    7146,    7145,    7125,    7126
     578,    2502,    2503,    2523,    2522,     896,     897,     917,     916,    6507,    6506,    6466,    6508,    6233,    6273,    6274,    6271,    7147,    7146,    7126,    7127
     579,    2501,    2502,    2522,    2521,     895,     896,     916,     915,    6509,    6508,    6468,    6510,    6231,    6271,    6272,    6269,    7148,    7147,    7127,    7128
     580,    2500,    2501,    2521,    2520,     894,     895,     915,     914,    6511,    6510,    6470,    6512,    6229,    6269,    6270,    6267,    7149,    7148,    7128,    7129
     581,    2499,    2500,    2520,    2519,     893,     894,     914,     913,    6513,    6512,    6472,    6514,    6227,    6267,    6268,    6265,    7150,    7149,    7129,    7130
     582,    2498,    2499,    2519,    2518,     892,     893,     913,     912,    6515,    6514,    6474,    6516,    6225,    6265,    6266,    6263,    7151,    7150,    7130,    7131
     583,    2497,    2498,    2518,    2517,     891,     892,     912,     911,    6517,    6516,    6476,    6518,    6223,    6263,    6264,    6261,    7152,    7151,    7131,    7132
     584,    2496,    2497,    2517,    2516,     890,     891,     911,     910,    6519,    6518,    6478,    6520,    6221,    6261,    6262,    6259,    7153,    7152,    7132,    7133
     585,    2495,    2496,    2516,    2515,     889,     890,     910,     909,    6521,    6520,    6480,    6522,    6219,    6259,    6260,    6257,    7154,    7153,    7133,    7134
     586,    2494,    2495,    2515,    2514,     888,     889,     909,     908,    6523,    6522,    6482,    6524,    6217,    6257,    6258,    6255,    7155,    7154,    7134,    7135
     587,    2493,    2494,    2514,    2513,     887,     888,     908,     907,    6525,    6524,    6484,    6526,    6215,    6255,    6256,    6253,    7156,    7155,    7135,    7136
     588,    2214,    2493,    2513,    2215,     613,     887,     907,     612,    6527,    6526,    6486,    6402,    6213,    6253,    6254,    5664,    7094,    7156,    7136,    7095
     589,    2492,    2229,    2230,    2512,     886,     598,     597,     906,    6528,    6368,    6487,    6529,    6211,    5648,    6252,    6250,    7157,    6384,    6385,    7137
     590,    2491,    2492,    2512,    2511,     885,     886,     906,     905,    6530,    6529,    6489,    6531,    6210,    6250,    6251,    6248,    7158,    7157,    7137,    7138
     591,    2490,    2491,    2511,    2510,     884,     885,     905,     904,    6532,    6531,    6491,    6533,    6208,    6248,    6249,    6246,    7159,    7158,    7138,    7139
     592,    2489,    2490,    2510,    2509,     883,     884,     904,     903,    6534,    6533,    6493,    6535,    6206,    6246,    6247,    6244,    7160,    7159,    7139,    7140
     593,    2488,    2489,    2509,    2508,     882,     883,     903,     902,    6536,    6535,    6495,    6537,    6204,    6244,    6245,    6242,    7161,    7160,    7140,    7141
     594,    2487,    2488,    2508,    2507,     881,     882,     902,     901,    6538,    6537,    6497,    6539,    6202,    6242,    6243,    6240,    7162,    7161,    7141,    7142
     595,    2486,    2487,    2507,    2506,     880,     881,     901,     900,    6540,    6539,    6499,    6541,    6200,    6240,    6241,    6238,    7163,    7162,    7142,    7143
     596,    2485,    2486,    2506,    2505,     879,     880,     900,     899,    6542,    6541,    6501,    6543,    6198,    6238,    6239,    6236,    7164,    7163,    7143,    7144
     597,    2484,    2485,    2505,    2504,     878,     879,     899,     898,    6544,    6543,    6503,    6545,    6196,    6236,    6237,    6234,    7165,    7164,    7144,    7145
     598,    2483,    2484,    2504,    2503,     877,     878,     898,     897,    6546,    6545,    6505,    6547,    6194,    6234,    6235,    6232,    7166,    7165,    7145,    7146
     599,    2482,    2483,    2503,    2502,     876,     877,     897,     896,    6548,    6547,    6507,    6549,    6192,    6232,    6233,    6230,    7167,    7166,    7146,    7147
     600,    2481,    2482,    2502,    2501,     875,     876,     896,     895,    6550,    6549,    6509,    6551,    6190,    6230,    6231,    6228,    7168,    7167,    7147,    7148
     601,    2480,    2481,    2501,    2500,     874,     875,     895,     894,    6552,    6551,    6511,    6553,    6188,    6228,    6229,    6226,    7169,    7168,    7148,    7149
     602,    2479,    2480,    2500,    2499,     873,     874,     894,     893,    6554,    6553,    6513,    6555,    6186,    6226,    6227,    6224,    7170,    7169,    7149,    7150
     603,    2478,    2479,    2499,    2498,     872,     873,     893,     892,    6556,    6555,    6515,    6557,    6184,    6224,    6225,    6222,    7171,    7170,    7150,    7151
     604,    2477,    2478,    2498,    2497,     871,     872,     892,     891,    6558,    6557,    6517,    6559,    6182,    6222,    6223,    6220,    7172,    7171,    7151,    7152
     605,    2476,    2477,    2497,    2496,     870,     871,     891,     890,    6560,    6559,    6519,    6561,    6180,    6220,    6221,    6218,    7173,    7172,    7152,    7153
     606,    2475,    2476,    2496,    2495,     869,     870,     890,     889,    6562,    6561,    6521,    6563,    6178,    6218,    6219,    6216,    7174,    7173,    7153,    7154
     607,    2474,    2475,    2495,    2494,     868,     869,     889,     888,    6564,    6563,    6523,    6565,    6176,    6216,    6217,    6214,    7175,    7174,    7154,    7155
     608,    2473,    2474,    2494,    2493,     867,     868,     888,     887,    6566,    6565,    6525,    6567,    6174,    6214,    6215,    6212,    7176,    7175,    7155,    7156
     609,    2213,    2473,    2493,    2214,     614,     867,     887,     613,    6568,    6567,    6527,    6401,    6172,    6212,    6213,    5665,    7093,    7176,    7156,    7094
     610,    2472,    2228,    2229,    2492,     866,     599,     598,     886,    6569,    6367,    6528,    6570,    6170,    5649,    6211,    6209,    7177,    6383,    6384,    7157
     611,    2471,    2472,    2492,    2491,     865,     866,     886,     885,    6571,    6570,    6530,    6572,    6169,    6209,    6210,    6207,    7178,    7177,    7157,    7158
     612,    2470,    2471,    2491,    2490,     864,     865,     885,     884,    6573,    6572,    6532,    6574,    6167,    6207,    6208,    6205,    7179,    7178,    7158,    7159
     613,    2469,    2470,    2490,    2489,     863,     864,     884,     883,    6575,    6574,    6534,    6576,    6165,    6205,    6206,    6203,    7180,    7179,    7159,    7160
     614,    2468,    2469,    2489,    2488,     862,     863,     883,     882,    6577,    6576,    6536,    6578,    6163,    6203,    6204,    6201,    7181,    7180,    7160,    7161
     615,    2467,    2468,    2488,    2487,     861,     862,     882,     881,    6579,    6578,    6538,    6580,    6161,    6201,    6202,    6199,    7182,    7181,    7161,    7162
     616,    2466,    2467,    2487,    2486,     860,     861,     881,     880,    6581,    6580,    6540,    6582,    6159,    6199,    6200,    6197,    7183,    7182,    7162,    7163
     617,    2465,    2466,    2486,    2485,     859,     860,     880,     879,    6583,    6582,    6542,    6584,    6157,    6197,    6198,    6195,    7184,    7183,    7163,    7164
     618,    2464,    2465,    2485,    2484,     858,     859,     879,     878,    6585,    6584,    6544,    6586,    6155,    6195,    6196,    6193,    7185,    7184,    7164,    7165
     619,    2463,    2464,    2484,    2483,     857,     858,     878,     877,    6587,    6586,    6546,    6588,    6153,    6193,    6194,    6191,    7186,    7185,    7165,    7166
     620,    2462,    2463,    2483,    2482,     856,     857,     877,     876,    6589,    6588,    6548,    6590,    6151,    6191,    6192,    6189,    7187,    7186,    7166,    7167
     621,    2461,    2462,    2482,    2481,     855,     856,     876,     875,    6591,    6590,    6550,    6592,    6149,    6189,    6190,    6187,    7188,    7187,    7167,    7168
     622,    2460,    2461,    2481,    2480,     854,     855,     875,     874,    6593,    6592,    6552,    6594,    6147,    6187,    6188,    6185,    7189,    7188,    7168,    7169
     623,    2459,    2460,    2480,    2479,     853,     854,     874,     873,    6595,    6594,    6554,    6596,    6145,    6185,    6186,    6183,    7190,    7189,    7169,    7170
     624,    2458,    2459,    2479,    2478,     852,     853,     873,     872,    6597,    6596,    6556,    6598,    6143,    6183,    6184,    6181,    7191,    7190,    7170,    7171
     625,    2457,    2458,    2478,    2477,     851,     852,     872,     871,    6599,    6598,    6558,    6600,    6141,    6181,    6182,    6179,    7192,    7191,    7171,    7172
     626,    2456,    2457,    2477,    2476,     850,     851,     871,     870,    6601,    6600,    6560,    6602,    6139,    6179,    6180,    6177,    7193,    7192,    7172,    7173
     627,    2455,    2456,    2476,    2475,     849,     850,     870,     869,    6603,    6602,    6562,    6604,    6137,    6177,    6178,    6175,    7194,    7193,    7173,    7174
     628,    2454,    2455,    2475,    2474,     848,     849,     869,     868,    6605,    6604,    6564,    6606,    6135,    6175,    6176,    6173,    7195,    7194,    7174,    7175
     629,    2453,    2454,    2474,    2473,     847,     848,     868,     867,    6607,    6606,    6566,    6608,    6133,    6173,    6174,    6171,    7196,    7195,    7175,    7176
     630,    2212,    2453,    2473,    2213,     615,     847,     867,     614,    6609,    6608,    6568,    6400,    6131,    6171,    6172,    5666,    7092,    7196,    7176,    7093
     631,    2452,    2227,    2228,    2472,     846,     600,     599,     866,    6610,    6366,    6569,    6611,    6129,    5650,    6170,    6168,    7197,    6382,    6383,    7177
     632,    2451,    2452,    2472,    2471,     845,     846,     866,     865,    6612,    6611,    6571,    6613,    6128,    6168,    6169,    6166,    7198,    7197,    7177,    7178
     633,    2450,    2451,    2471,    2470,     844,     845,     865,     864,    6614,    6613,    6573,    6615,    6126,    6166,    6167,    6164,    7199,    7198,    7178,    7179
     634,    2449,    2450,    2470,    2469,     843,     844,     864,     863,    6616,    6615,    6575,    6617,    6124,    6164,    6165,    6162,    7200,    7199,    7179,    7180
     635,    2448,    2449,    2469,    2468,     842,     843,     863,     862,    6618,    6617,    6577,    6619,    6122,    6162,    6163,    6160,    7201,    7200,    7180,    7181
     636,    2447,    2448,    2468,    2467,     841,     842,     862,     861,    6620,    6619,    6579,    6621,    6120,    6160,    6161,    6158,    7202,    7201,    7181,    7182
     637,    2446,    2447,    2467,    2466,     840,     841,     861,     860,    6622,    6621,    6581,    6623,    6118,    6158,    6159,    6156,    7203,    7202,    7182,    7183
     638,    2445,    2446,    2466,    2465,     839,     840,     860,     859,    6624,    6623,    6583,    6625,    6116,    6156,    6157,    6154,    7204,    7203,    7183,    7184
     639,    2444,    2445,    2465,    2464,     838,     839,     859,     858,    6626,    6625,    6585,    6627,    6114,    6154,    6155,    6152,    7205,    7204,    7184,    7185
     640,    2443,    2444,    2464,    2463,     837,     838,     858,     857,    6628,    6627,    6587,    6629,    6112,    6152,    6153,    6150,    7206,    7205,    7185,    7186
     641,    2442,    2443,    2463,    2462,     836,     837,     857,     856,    6630,    6629,    6589,    6631,    6110,    6150,    6151,    6148,    7207,    7206,    7186,    7187
     642,    2441,    2442,    2462,    2461,     835,     836,     856,     855,    6632,    6631,    6591,    6633,    6108,    6148,    6149,    6146,    7208,    7207,    7187,    7188
     643,    2440,    2441,    2461,    2460,     834,     835,     855,     854,    6634,    6633,    6593,    6635,    6106,    6146,    6147,    6144,    7209,    7208,    7188,    7189
     644,    2439,    2440,    2460,    2459,     833,     834,     854,     853,    6636,    6635,    6595,    6637,    6104,    6144,    6145,    6142,    7210,    7209,    7189,    7190
     645,    2438,    2439,    2459,    2458,     832,     833,     853,     852,    6638,    6637,    6597,    6639,    6102,    6142,    6143,    6140,    7211,    7210,    7190,    7191
     646,    2437,    2438,    2458,    2457,     831,     832,     852,     851,    6640,    6639,    6599,    6641,    6100,    6140,    6141,    6138,    7212,    7211,    7191,    7192
     647,    2436,    2437,    2457,    2456,     830,     831,     851,     850,    6642,    6641,    6601,    6643,    6098,    6138,    6139,    6136,    7213,    7212,    7192,    7193
     648,    2435,    2436,    2456,    2455,     829,     830,     850,     849,    6644,    6643,    6603,    6645,    6096,    6136,    6137,    6134,    7214,    7213,    7193,    7194
     649,    2434,    2435,    2455,    2454,     828,     829,     849,     848,    6646,    6645,    6605,    6647,    6094,    6134,    6135,    6132,    7215,    7214,    7194,    7195
     650,    2433,    2434,    2454,    2453,     827,     828,     848,     847,    6648,    6647,    6607,    6649,    6092,    6132,    6133,    6130,    7216,    7215,    7195,    7196
     651,    2211,    2433,    2453,    2212,     616,     827,     847,     615,    6650,    6649,    6609,    6399,    6090,    6130,    6131,    5667,    7091,    7216,    7196,    7092
     652,    2432,    2226,    2227,    2452,     826,     601,     600,     846,    6651,    6365,    6610,    6652,    6088,    5651,    6129,    6127,    7217,    6381,    6382,    7197
     653,    2431,    2432,    2452,    2451,     825,     826,     846,     845,    6653,    6652,    6612,    6654,    6087,    6127,    6128,    6125,    7218,    7217,    7197,    7198
     654,    2430,    2431,    2451,    2450,     824,     825,     845,     844,    6655,    6654,    6614,    6656,    6085,    6125,    6126,    6123,    7219,    7218,    7198,    7199
     655,    2429,    2430,    2450,    2449,     823,     824,     844,     843,    6657,    6656,    6616,    6658,    6083,    6123,    6124,    6121,    7220,    7219,    7199,    7200
     656,    2428,    2429,    2449,    2448,     822,     823,     843,     842,    6659,    6658,    6618,    6660,    6081,    6121,    6122,    6119,    7221,    7220,    7200,    7201
     657,    2427,    2428,    2448,    2447,     821,     822,     842,     841,    6661,    6660,    6620,    6662,    6079,    6119,    6120,    6117,    7222,    7221,    7201,    7202
     658,    2426,    2427,    2447,    2446,     820,     821,     841,     840,    6663,    6662,    6622,    6664,    6077,    6117,    6118,    6115,    7223,    7222,    7202,    7203
     659,    2425,    2426,    2446,    2445,     819,     820,     840,     839,    6665,    6664,    6624,    6666,    6075,    6115,    6116,    6113,    7224,    7223,    7203,    7204
     660,    2424,    2425,    2445,    2444,     818,     819,     839,     838,    6667,    6666,    6626,    6668,    6073,    6113,    6114,    6111,    7225,    7224,    7204,    7205
     661,    2423,    2424,    2444,    2443,     817,     818,     838,     837,    6669,    6668,    6628,    6670,    6071,    6111,    6112,    6109,    7226,    7225,    7205,    7206
     662,    2422,    2423,    2443,    2442,     816,     817,     837,     836,    6671,    6670,    6630,    6672,    6069,    6109,    6110,    6107,    7227,    7226,    7206,    7207
     663,    2421,    2422,    2442,    2441,     815,     816,     836,     835,    6673,    6672,    6632,    6674,    6067,    6107,    6108,    6105,    7228,    7227,    7207,    7208
     664,    2420,    2421,    2441,    2440,     814,     815,     835,     834,    6675,    6674,    6634,    6676,    6065,    6105,    6106,    6103,    7229,    7228,    7208,    7209
     665,    2419,    2420,    2440,    2439,     813,     814,     834,     833,    6677,    6676,    6636,    6678,    6063,    6103,    6104,    6101,    7230,    7229,    7209,    7210
     666,    2418,    2419,    2439,    2438,     812,     813,     833,     832,    6679,    6678,    6638,    6680,    6061,    6101,    6102,    6099,    7231,    7230,    7210,    7211
     667,    2417,    2418,    2438,    2437,     811,     812,     832,     831,    6681,    6680,    6640,    6682,    6059,    6099,    6100,    6097,    7232,    7231,    7211,    7212
     668,    2416,    2417,    2437,    2436,     810,     811,     831,     830,    6683,    6682,    6642,    6684,    6057,    6097,    6098,    6095,    7233,    7232,    7212,    7213
     669,    2415,    2416,    2436,    2435,     809,     810,     830,     829,    6685,    6684,    6644,    6686,    6055,    6095,    6096,    6093,    7234,    7233,    7213,    7214
     670,    2414,    2415,    2435,    2434,     808,     809,     829,     828,    6687,    6686,    6646,    6688,    6053,    6093,    6094,    6091,    7235,    7234,    7214,    7215
     671,    2413,    2414,    2434,    2433,     807,     808,     828,     827,    6689,    6688,    6648,    6690,    6051,    6091,    6092,    6089,    7236,    7235,    7215,    7216
     672,    2210,    2413,    2433,    2211,     617,     807,     827,     616,    6691,    6690,    6650,    6398,    6049,    6089,    6090,    5668,    7090,    7236,    7216,    7091
     673,    2412,    2225,    2226,    2432,     806,     602,     601,     826,    6692,    6364,    6651,    6693,    6047,    5652,    6088,    6086,    7237,    6380,    6381,    7217
     674,    2411,    2412,    2432,    2431,     805,     806,     826,     825,    6694,    6693,    6653,    6695,    6046,    6086,    6087,    6084,    7238,    7237,    7217,    7218
     675,    2410,    2411,    2431,    2430,     804,     805,     825,     824,    6696,    6695,    6655,    6697,    6044,    6084,    6085,    6082,    7239,    7238,    7218,    7219
     676,    2409,    2410,    2430,    2429,     803,     804,     824,     823,    6698,    6697,    6657,    6699,    6042,    6082,    6083,    6080,    7240,    7239,    7219,    7220
     677,    2408,    2409,    2429,    2428,     802,     803,     823,     822,    6700,    6699,    6659,    6701,    6040,    6080,    6081,    6078,    7241,    7240,    7220,    7221
     678,    2407,    2408,    2428,    2427,     801,     802,     822,     821,    6702,    6701,    6661,    6703,    6038,    6078,    6079,    6076,    7242,    7241,    7221,    7222
     679,    2406,    2407,    2427,    2426,     800,     801,     821,     820,    6704,    6703,    6663,    6705,    6036,    6076,    6077,    6074,    7243,    7242,    7222,    7223
     680,    2405,    2406,    2426,    2425,     799,     800,     820,     819,    6706,    6705,    6665,    6707,    6034,    6074,    6075,    6072,    7244,    7243,    7223,    7224
     681,    2404,    2405,    2425,    2424,     798,     799,     819,     818,    6708,    6707,    6667,    6709,    6032,    6072,    6073,    6070,    7245,    7244,    7224,    7225
     682,    2403,    2404,    2424,    2423,     797,     798,     818,     817,    6710,    6709,    6669,    6711,    6030,    6070,    6071,    6068,    7246,    7245,    7225,    7226
     683,    2402,    2403,    2423,    2422,     796,     797,     817,     816,    6712,    6711,    6671,    6713,    6028,    6068,    6069,    6066,    7247,    7246,    7226,    7227
     684,    2401,    2402,    2422,    2421,     795,     796,     816,     815,    6714,    6713,    6673,    6715,    6026,    6066,    6067,    6064,    7248,    7247,    7227,    7228
     685,    2400,    2401,    2421,    2420,     794,     795,     815,     814,    6716,    6715,    6675,    6717,    6024,    6064,    6065,    6062,    7249,    7248,    7228,    7229
     686,    2399,    2400,    2420,    2419,     793,     794,     814,     813,    6718,    6717,    6677,    6719,    6022,    6062,    6063,    6060,    7250,    7249,    7229,    7230
     687,    2398,    2399,    2419,    2418,     792,     793,     813,     812,    6720,    6719,    6679,    6721,    6020,    6060,    6061,    6058,    7251,    7250,    7230,    7231
     688,    2397,    2398,    2418,    2417,     791,     792,     812,     811,    6722,    6721,    6681,    6723,    6018,    6058,    6059,    6056,    7252,    7251,    7231,    7232
     689,    2396,    2397,    2417,    2416,     790,     791,     811,     810,    6724,    6723,    6683,    6725,    6016,    6056,    6057,    6054,    7253,    7252,    7232,    7233
     690,    2395,    2396,    2416,    2415,     789,     790,     810,     809,    6726,    6725,    6685,    6727,    6014,    6054,    6055,    6052,    7254,    7253,    7233,    7234
     691,    2394,    2395,    2415,    2414,     788,     789,     809,     808,    6728,    6727,    6687,    6729,    6012,    6052,    6053,    6050,    7255,    7254,    7234,    7235
     692,    2393,    2394,    2414,    2413,     787,     788,     808,     807,    6730,    6729,    6689,    6731,    6010,    6050,    6051,    6048,    7256,    7255,    7235,    7236
     693,    2209,    2393,    2413,    2210,     618,     787,     807,     617,    6732,    6731,    6691,    6397,    6008,    6048,    6049,    5669,    7089,    7256,    7236,    7090
     694,    2392,    2224,    2225,    2412,     786,     603,     602,     806,    6733,    6363,    6692,    6734,    6006,    5653,    6047,    6045,    7257,    6379,    6380,    7237
     695,    2391,    2392,    2412,    2411,     785,     786,     806,     805,    6735,    6734,    6694,    6736,    6005,    6045,    6046,    6043,    7258,    7257,    7237,    7238
     696,    2390,    2391,    2411,    2410,     784,     785,     805,     804,    6737,    6736,    6696,    6738,    6003,    6043,    6044,    6041,    7259,    7258,    7238,    7239
     697,    2389,    2390,    2410,    2409,     783,     784,     804,     803,    6739,    6738,    6698,    6740,    6001,    6041,    6042,    6039,    7260,    7259,    7239,    7240
     698,    2388,    2389,    2409,    2408,     782,     783,     803,     802,    6741,    6740,    6700,    6742,    5999,    6039,    6040,    6037,    7261,    7260,    7240,    7241
     699,    2387,    2388,    2408,    2407,     781,     782,     802,     801,    6743,    6742,    6702,    6744,    5997,    6037,    6038,    6035,    7262,    7261,    7241,    7242
     700,    2386,    2387,    2407,    2406,     780,     781,     801,     800,    6745,    6744,    6704,    6746,    5995,    6035,    6036,    6033,    7263,    7262,    7242,    7243
     701,    2385,    2386,    2406,    2405,     779,     780,     800,     799,    6747,    6746,    6706,    6748,    5993,    6033,    6034,    6031,    7264,    7263,    7243,    7244
     702,    2384,    2385,    2405,    2404,     778,     779,     799,     798,    6749,    6748,    6708,    6750,    5991,    6031,    6032,    6029,    7265,    7264,    7244,    7245
     703,    2383,    2384,    2404,    2403,     777,     778,     798,     797,    6751,    6750,    6710,    6752,    5989,    6029,    6030,    6027,    7266,    7265,    7245,    7246
     704,    2382,    2383,    2403,    2402,     776,     777,     797,     796,    6753,    6752,    6712,    6754,    5987,    6027,    6028,    6025,    7267,    7266,    7246,    7247
     705,    2381,    2382,    2402,    2401,     775,     776,     796,     795,    6755,    6754,    6714,    6756,    5985,    6025,    6026,    6023,    7268,    7267,    7247,    7248
     706,    2380,    2381,    2401,    2400,     774,     775,     795,     794,    6757,    6756,    6716,    6758,    5983,    6023,    6024,    6021,    7269,    7268,    7248,    7249
     707,    2379,    2380,    2400,    2399,     773,     774,     794,     793,    6759,    6758,    6718,    6760,    5981,    6021,    6022,    6019,    7270,    7269,    7249,    7250
     708,    2378,    2379,    2399,    2398,     772,     773,     793,     792,    6761,    6760,    6720,    6762,    5979,    6019,    6020,    6017,    7271,    7270,    7250,    7251
     709,    2377,    2378,    2398,    2397,     771,     772,     792,     791,    6763,    6762,    6722,    6764,    5977,    6017,    6018,    6015,    7272,    7271,    7251,    7252
     710,    2376,    2377,    2397,    2396,     770,     771,     791,     790,    6765,    6764,    6724,    6766,    5975,    6015,    6016,    6013,    7273,    7272,    7252,    7253
     711,    2375,    2376,    2396,    2395,     769,     770,     790,     789,    6767,    6766,    6726,    6768,    5973,    6013,    6014,    6011,    7274,    7273,    7253,    7254
     712,    2374,    2375,    2395,    2394,     768,     769,     789,     788,    6769,    6768,    6728,    6770,    5971,    6011,    6012,    6009,    7275,    7274,    7254,    7255
     713,    2373,    2374,    2394,    2393,     767,     768,     788,     787,    6771,    6770,    6730,    6772,    5969,    6009,    6010,    6007,    7276,    7275,    7255,    7256
     714,    2208,    2373,    2393,    2209,     619,     767,     787,     618,    6773,    6772,    6732,    6396,    5967,    6007,    6008,    5670,    7088,    7276,    7256,    7089
     715,    2372,    2223,    2224,    2392,     766,     604,     603,     786,    6774,    6362,    6733,    6775,    5965,    5654,    6006,    6004,    7277,    6378,    6379,    7257
     716,    2371,    2372,    2392,    2391,     765,     766,     786,     785,    6776,    6775,    6735,    6777,    5964,    6004,    6005,    6002,    7278,    7277,    7257,    7258
     717,    2370,    2371,    2391,    2390,     764,     765,     785,     784,    6778,    6777,    6737,    6779,    5962,    6002,    6003,    6000,    7279,    7278,    7258,    7259
     718,    2369,    2370,    2390,    2389,     763,     764,     784,     783,    6780,    6779,    6739,    6781,    5960,    6000,    6001,    5998,    7280,    7279,    7259,    7260
     719,    2368,    2369,    2389,    2388,     762,     763,     783,     782,    6782,    6781,    6741,    6783,    5958,    5998,    5999,    5996,    7281,    7280,    7260,    7261
     720,    2367,    2368,    2388,    2387,     761,     762,     782,     781,    6784,    6783,    6743,    6785,    5956,    5996,    5997,    5994,    7282,    7281,    7261,    7262
     721,    2366,    2367,    2387,    2386,     760,     761,     781,     780,    6786,    6785,    6745,    6787,    5954,    5994,    5995,    5992,    7283,    7282,    7262,    7263
     722,    2365,    2366,    2386,    2385,     759,     760,     780,     779,    6788,    6787,    6747,    6789,    5952,    5992,    5993,    5990,    7284,    7283,    7263,    7264
     723,    2364,    2365,    2385,    2384,     758,     759,     779,     778,    6790,    6789,    6749,    6791,    5950,    5990,    5991,    5988,    7285,    7284,    7264,    7265
     724,    2363,    2364,    2384,    2383,     757,     758,     778,     777,    6792,    6791,    6751,    6793,    5948,    5988,    5989,    5986,    7286,    7285,    7265,    7266
     725,    2362,    2363,    2383,    2382,     756,     757,     777,     776,    6794,    6793,    6753,    6795,    5946,    5986,    5987,    5984,    7287,    7286,    7266,    7267
     726,    2361,    2362,    2382,    2381,     755,     756,     776,     775,    6796,    6795,    6755,    6797,    5944,    5984,    5985,    5982,    7288,    7287,    7267,    7268
     727,    2360,    2361,    2381,    2380,     754,     755,     775,     774,    6798,    6797,    6757,    6799,    5942,    5982,    5983,    5980,    7289,    7288,    7268,    7269
     728,    2359,    2360,    2380,    2379,     753,     754,     774,     773,    6800,    6799,    6759,    6801,    5940,    5980,    5981,    5978,    7290,    7289,    7269,    7270
     729,    2358,    2359,    2379,    2378,     752,     753,     773,     772,    6802,    6801,    6761,    6803,    5938,    5978,    5979,    5976,    7291,    7290,    7270,    7271
     730,    2357,    2358,    2378,    2377,     751,     752,     772,     771,    6804,    6803,    6763,    6805,    5936,    5976,    5977,    5974,    7292,    7291,    7271,    7272
     731,    2356,    2357,    2377,    2376,     750,     751,     771,     770,    6806,    6805,    6765,    6807,    5934,    5974,    5975,    5972,    7293,    7292,    7272,    7273
     732,    2355,    2356,    2376,    2375,     749,     750,     770,     769,    6808,    6807,    6767,    6809,    5932,    5972,    5973,    5970,    7294,    7293,    7273,    7274
     733,    2354,    2355,    2375,    2374,     748,     749,     769,     768,    6810,    6809,    6769,    6811,    5930,    5970,    5971,    5968,    7295,    7294,    7274,    7275
     734,    2353,    2354,    2374,    2373,     747,     748,     768,     767,    6812,    6811,    6771,    6813,    5928,    5968,    5969,    5966,    7296,    7295,    7275,    7276
     735,    2207,    2353,    2373,    2208,     620,     747,     767,     619,    6814,    6813,    6773,    6395,    5926,    5966,    5967,    5671,    7087,    7296,    7276,    7088
     736,    2352,    2222,    2223,    2372,     746,     605,     604,     766,    6815,    6361,    6774,    6816,    5924,    5655,    5965,    5963,    7297,    6377,    6378,    7277
     737,    2351,    2352,    2372,    2371,     745,     746,     766,     765,    6817,    6816,    6776,    6818,    5923,    5963,    5964,    5961,    7298,    7297,    7277,    7278
     738,    2350,    2351,    2371,    2370,     744,     745,     765,     764,    6819,    6818,    6778,    6820,    5921,    5961,    5962,    5959,    7299,    7298,    7278,    7279
     739,    2349,    2350,    2370,    2369,     743,     744,     764,     763,    6821,    6820,    6780,    6822,    5919,    5959,    5960,    5957,    7300,    7299,    7279,    7280
     740,    2348,    2349,    2369,    2368,     742,     743,     763,     762,    6823,    6822,    6782,    6824,    5917,    5957,    5958,    5955,    7301,    7300,    7280,    7281
     741,    2347,    2348,    2368,    2367,     741,     742,     762,     761,    6825,    6824,    6784,    6826,    5915,    5955,    5956,    5953,    7302,    7301,    7281,    7282
     742,    2346,    2347,    2367,    2366,     740,     741,     761,     760,    6827,    6826,    6786,    6828,    5913,    5953,    5954,    5951,    7303,    7302,    7282,    7283
     743,    2345,    2346,    2366,    2365,     739,     740,     760,     759,    6829,    6828,    6788,    6830,    5911,    5951,    5952,    5949,    7304,    7303,    7283,    7284
     744,    2344,    2345,    2365,    2364,     738,     739,     759,     758,    6831,    6830,    6790,    6832,    5909,    5949,    5950,    5947,    7305,    7304,    7284,    7285
     745,    2343,    2344,    2364,    2363,     737,     738,     758,     757,    6833,    6832,    6792,    6834,    5907,    5947,    5948,    5945,    7306,    7305,    7285,    7286
     746,    2342,    2343,    2363,    2362,     736,     737,     757,     756,    6835,    6834,    6794,    6836,    5905,    5945,    5946,    5943,    7307,    7306,    7286,    7287
     747,    2341,    2342,    2362,    2361,     735,     736,     756,     755,    6837,    6836,    6796,    6838,    5903,    5943,    5944,    5941,    7308,    7307,    7287,    7288
     748,    2340,    2341,    2361,    2360,     734,     735,     755,     754,    6839,    6838,    6798,    6840,    5901,    5941,    5942,    5939,    7309,    7308,    7288,    7289
     749,    2339,    2340,    2360,    2359,     733,     734,     754,     753,    6841,    6840,    6800,    6842,    5899,    5939,    5940,    5937,    7310,    7309,    7289,    7290
     750,    2338,    2339,    2359,    2358,     732,     733,     753,     752,    6843,    6842,    6802,    6844,    5897,    5937,    5938,    5935,    7311,    7310,    7290,    7291
     751,    2337,    2338,    2358,    2357,     731,     732,     752,     751,    6845,    6844,    6804,    6846,    5895,    5935,    5936,    5933,    7312,    7311,    7291,    7292
     752,    2336,    2337,    2357,    2356,     730,     731,     751,     750,    6847,    6846,    6806,    6848,    5893,    5933,    5934,    5931,    7313,    7312,    7292,    7293
     753,    2335,    2336,    2356,    2355,     729,     730,     750,     749,    6849,    6848,    6808,    6850,    5891,    5931,    5932,    5929,    7314,    7313,    7293,    7294
     754,    2334,    2335,    2355,    2354,     728,     729,     749,     748,    6851,    6850,    6810,    6852,    5889,    5929,    5930,    5927,    7315,    7314,    7294,    7295
     755,    2333,    2334,    2354,    2353,     727,     728,     748,     747,    6853,    6852,    6812,    6854,    5887,    5927,    5928,    5925,    7316,    7315,    7295,    7296
     756,    2206,    2333,    2353,    2207,     621,     727,     747,     620,    6855,    6854,    6814,    6394,    5885,    5925,    5926,    5672,    7086,    7316,    7296,    7087
     757,    2332,    2221,    2222,    2352,     726,     606,     605,     746,    6856,    6360,    6815,    6857,    5883,    5656,    5924,    5922,    7317,    6376,    6377,    7297
     758,    2331,    2332,    2352,    2351,     725,     726,     746,     745,    6858,    6857,    6817,    6859,    5882,    5922,    5923,    5920,    7318,    7317,    7297,    7298
     759,    2330,    2331,    2351,    2350,     724,     725,     745,     744,    6860,    6859,    6819,    6861,    5880,    5920,    5921,    5918,    7319,    7318,    7298,    7299
     760,    2329,    2330,    2350,    2349,     723,     724,     744,     743,    6862,    6861,    6821,    6863,    5878,    5918,    5919,    5916,    7320,    7319,    7299,    7300
     761,    2328,    2329,    2349,    2348,     722,     723,     743,     742,    6864,    6863,    6823,    6865,    5876,    5916,    5917,    5914,    7321,    7320,    7300,    7301
     762,    2327,    2328,    2348,    2347,     721,     722,     742,     741,    6866,    6865,    6825,    6867,    5874,    5914,    5915,    5912,    7322,    7321,    7301,    7302
     763,    2326,    2327,    2347,    2346,     720,     721,     741,     740,    6868,    6867,    6827,    6869,    5872,    5912,    5913,    5910,    7323,    7322,    7302,    7303
     764,    2325,    2326,    2346,    2345,     719,     720,     740,     739,    6870,    6869,    6829,    6871,    5870,    5910,    5911,    5908,    7324,    7323,    7303,    7304
     765,    2324,    2325,    2345,    2344,     718,     719,     739,     738,    6872,    6871,    6831,    6873,    5868,    5908,    5909,    5906,    7325,    7324,    7304,    7305
     766,    2323,    2324,    2344,    2343,     717,     718,     738,     737,    6874,    6873,    6833,    6875,    5866,    5906,    5907,    5904,    7326,    7325,    7305,    7306
     767,    2322,    2323,    2343,    2342,     716,     717,     737,     736,    6876,    6875,    6835,    6877,    5864,    5904,    5905,    5902,    7327,    7326,    7306,    7307
     768,    2321,    2322,    2342,    2341,     715,     716,     736,     735,    6878,    6877,    6837,    6879,    5862,    5902,    5903,    5900,    7328,    7327,    7307,    7308
     769,    2320,    2321,    2341,    2340,     714,     715,     735,     734,    6880,    6879,    6839,    6881,    5860,    5900,    5901,    5898,    7329,    7328,    7308,    7309
     770,    2319,    2320,    2340,    2339,     713,     714,     734,     733,    6882,    6881,    6841,    6883,    5858,    5898,    5899,    5896,    7330,    7329,    7309,    7310
     771,    2318,    2319,    2339,    2338,     712,     713,     733,     732,    6884,    6883,    6843,    6885,    5856,    5896,    5897,    5894,    7331,    7330,    7310,    7311
     772,    2317,    2318,    2338,    2337,     711,     712,     732,     731,    6886,    6885,    6845,    6887,    5854,    5894,    5895,    5892,    7332,    7331,    7311,    7312
     773,    2316,    2317,    2337,    2336,     710,     711,     731,     730,    6888,    6887,    6847,    6889,    5852,    5892,    5893,    5890,    7333,    7332,    7312,    7313
     774,    2315,    2316,    2336,    2335,     709,     710,     730,     729,    6890,    6889,    6849,    6891,    5850,    5890,    5891,    5888,    7334,    7333,    7313,    7314
     775,    2314,    2315,    2335,    2334,     708,     709,     729,     728,    6892,    6891,    6851,    6893,    5848,    5888,    5889,    5886,    7335,    7334,    7314,    7315
     776,    2313,    2314,    2334,    2333,     707,     708,     728,     727,    6894,    6893,    6853,    6895,    5846,    5886,    5887,    5884,    7336,    7335,    7315,    7316
     777,    2205,    2313,    2333,    2206,     622,     707,     727,     621,    6896,    6895,    6855,    6393,    5844,    5884,    5885,    5673,    7085,    7336,    7316,    7086
     778,    2312,    2220,    2221,    2332,     706,     607,     606,     726,    6897,    6359,    6856,    6898,    5842,    5657,    5883,    5881,    7337,    6375,    6376,    7317
     779,    2311,    2312,    2332,    2331,     705,     706,     726,     725,    6899,    6898,    6858,    6900,    5841,    5881,    5882,    5879,    7338,    7337,    7317,    7318
     780,    2310,    2311,    2331,    2330,     704,     705,     725,     724,    6901,    6900,    6860,    6902,    5839,    5879,    5880,    5877,    7339,    7338,    7318,    7319
     781,    2309,    2310,    2330,    2329,     703,     704,     724,     723,    6903,    6902,    6862,    6904,    5837,    5877,    5878,    5875,    7340,    7339,    7319,    7320
     782,    2308,    2309,    2329,    2328,     702,     703,     723,     722,    6905,    6904,    6864,    6906,    5835,    5875,    5876,    5873,    7341,    7340,    7320,    7321
     783,    2307,    2308,    2328,    2327,     701,     702,     722,     721,    6907,    6906,    6866,    6908,    5833,    5873,    5874,    5871,    7342,    7341,    7321,    7322
     784,    2306,    2307,    2327,    2326,     700,     701,     721,     720,    6909,    6908,    6868,    6910,    5831,    5871,    5872,    5869,    7343,    7342,    7322,    7323
     785,    2305,    2306,    2326,    2325,     699,     700,     720,     719,    6911,    6910,    6870,    6912,    5829,    5869,    5870,    5867,    7344,    7343,    7323,    7324
     786,    2304,    2305,    2325,    2324,     698,     699,     719,     718,    6913,    6912,    6872,    6914,    5827,    5867,    5868,    5865,    7345,    7344,    7324,    7325
     787,    2303,    2304,    2324,    2323,     697,     698,     718,     717,    6915,    6914,    6874,    6916,    5825,    5865,    5866,    5863,    7346,    7345,    7325,    7326
     788,    2302,    2303,    2323,    2322,     696,     697,     717,     716,    6917,    6916,    6876,    6918,    5823,    5863,    5864,    5861,    7347,    7346,    7326,    7327
     789,    2301,    2302,    2322,    2321,     695,     696,     716,     715,    6919,    6918,    6878,    6920,    5821,    5861,    5862,    5859,    7348,    7347,    7327,    7328
     790,    2300,    2301,    2321,    2320,     694,     695,     715,     714,    6921,    6920,    6880,    6922,    5819,    5859,    5860,    5857,    7349,    7348,    7328,    7329
     791,    2299,    2300,    2320,    2319,     693,     694,     714,     713,    6923,    6922,    6882,    6924,    5817,    5857,    5858,    5855,    7350,    7349,    7329,    7330
     792,    2298,    2299,    2319,    2318,     692,     693,     713,     712,    6925,    6924,    6884,    6926,    5815,    5855,    5856,    5853,    7351,    7350,    7330,    7331
     793,    2297,    2298,    2318,    2317,     691,     692,     712,     711,    6927,    6926,    6886,    6928,    5813,    5853,    5854,    5851,    7352,    7351,    7331,    7332
     794,    2296,    2297,    2317,    2316,     690,     691,     711,     710,    6929,    6928,    6888,    6930,    5811,    5851,    5852,    5849,    7353,    7352,    7332,    7333
     795,    2295,    2296,    2316,    2315,     689,     690,     710,     709,    6931,    6930,    6890,    6932,    5809,    5849,    5850,    5847,    7354,    7353,    7333,    7334
     796,    2294,    2295,    2315,    2314,     688,     689,     709,     708,    6933,    6932,    6892,    6934,    5807,    5847,    5848,    5845,    7355,    7354,    7334,    7335
     797,    2293,    2294,    2314,    2313,     687,     688,     708,     707,    6935,    6934,    6894,    6936,    5805,    5845,    5846,    5843,    7356,    7355,    7335,    7336
     798,    2204,    2293,    2313,    2205,     623,     687,     707,     622,    6937,    6936,    6896,    6392,    5803,    5843,    5844,    5674,    7084,    7356,    7336,    7085
     799,    2292,    2219,    2220,    2312,     686,     608,     607,     706,    6938,    6358,    6897,    6939,    5801,    5658,    5842,    5840,    7357,    6374,    6375,    7337
     800,    2291,    2292,    2312,    2311,     685,     686,     706,     705,    6940,    6939,    6899,    6941,    5800,    5840,    5841,    5838,    7358,    7357,    7337,    7338
     801,    2290,    2291,    2311,    2310,     684,     685,     705,     704,    6942,    6941,    6901,    6943,    5798,    5838,    5839,    5836,    7359,    7358,    7338,    7339
     802,    2289,    2290,    2310,    2309,     683,     684,     704,     703,    6944,    6943,    6903,    6945,    5796,    5836,    5837,    5834,    7360,    7359,    7339,    7340
     803,    2288,    2289,    2309,    2308,     682,     683,     703,     702,    6946,    6945,    6905,    6947,    5794,    5834,    5835,    5832,    7361,    7360,    7340,    7341
     804,    2287,    2288,    2308,    2307,     681,     682,     702,     701,    6948,    6947,    6907,    6949,    5792,    5832,    5833,    5830,    7362,    7361,    7341,    7342
     805,    2286,    2287,    2307,    2306,     680,     681,     701,     700,    6950,    6949,    6909,    6951,    5790,    5830,    5831,    5828,    7363,    7362,    7342,    7343
     806,    2285,    2286,    2306,    2305,     679,     680,     700,     699,    6952,    6951,    6911,    6953,    5788,    5828,    5829,    5826,    7364,    7363,    7343,    7344
     807,    2284,    2285,    2305,    2304,     678,     679,     699,     698,    6954,    6953,    6913,    6955,    5786,    5826,    5827,    5824,    7365,    7364,    7344,    7345
     808,    2283,    2284,    2304,    2303,     677,     678,     698,     697,    6956,    6955,    6915,    6957,    5784,    5824,    5825,    5822,    7366,    7365,    7345,    7346
     809,    2282,    2283,    2303,    2302,     676,     677,     697,     696,    6958,    6957,    6917,    6959,    5782,    5822,    5823,    5820,    7367,    7366,    7346,    7347
     810,    2281,    2282,    2302,    2301,     675,     676,     696,     695,    6960,    6959,    6919,    6961,    5780,    5820,    5821,    5818,    7368,    7367,    7347,    7348
     811,    2280,    2281,    2301,    2300,     674,     675,     695,     694,    6962,    6961,    6921,    6963,    5778,    5818,    5819,    5816,    7369,    7368,    7348,    7349
     812,    2279,    2280,    2300,    2299,     673,     674,     694,     693,    6964,    6963,    6923,    6965,    5776,    5816,    5817,    5814,    7370,    7369,    7349,    7350
     813,    2278,    2279,    2299,    2298,     672,     673,     693,     692,    6966,    6965,    6925,    6967,    5774,    5814,    5815,    5812,    7371,    7370,    7350,    7351
     814,    2277,    2278,    2298,    2297,     671,     672,     692,     691,    6968,    6967,    6927,    6969,    5772,    5812,    5813,    5810,    7372,    7371,    7351,    7352
     815,    2276,    2277,    2297,    2296,     670,     671,     691,     690,    6970,    6969,    6929,    6971,    5770,    5810,    5811,    5808,    7373,    7372,    7352,    7353
     816,    2275,    2276,    2296,    2295,     669,     670,     690,     689,    6972,    6971,    6931,    6973,    5768,    5808,    5809,    5806,    7374,    7373,    7353,    7354
     817,    2274,    2275,    2295,    2294,     668,     669,     689,     688,    6974,    6973,    6933,    6975,    5766,    5806,    5807,    5804,    7375,    7374,    7354,    7355
     818,    2273,    2274,    2294,    2293,     667,     668,     688,     687,    6976,    6975,    6935,    6977,    5764,    5804,    5805,    5802,    7376,    7375,    7355,    7356
     819,    2203,    2273,    2293,    2204,     624,     667,     687,     623,    6978,    6977,    6937,    6391,    5762,    5802,    5803,    5675,    7083,    7376,    7356,    7084
     820,    2272,    2218,    2219,    2292,     666,     609,     608,     686,    6979,    6357,    6938,    6980,    5760,    5659,    5801,    5799,    7377,    6373,    6374,    7357
     821,    2271,    2272,    2292,    2291,     665,     666,     686,     685,    6981,    6980,    6940,    6982,    5759,    5799,    5800,    5797,    7378,    7377,    7357,    7358
     822,    2270,    2271,    2291,    2290,     664,     665,     685,     684,    6983,    6982,    6942,    6984,    5757,    5797,    5798,    5795,    7379,    7378,    7358,    7359
     823,    2269,    2270,    2290,    2289,     663,     664,     684,     683,    6985,    6984,    6944,    6986,    5755,    5795,    5796,    5793,    7380,    7379,    7359,    7360
     824,    2268,    2269,    2289,    2288,     662,     663,     683,     682,    6987,    6986,    6946,    6988,    5753,    5793,    5794,    5791,    7381,    7380,    7360,    7361
     825,    2267,    2268,    2288,    2287,     661,     662,     682,     681,    6989,    6988,    6948,    6990,    5751,    5791,    5792,    5789,    7382,    7381,    7361,    7362
     826,    2266,    2267,    2287,    2286,     660,     661,     681,     680,    6991,    6990,    6950,    6992,    5749,    5789,    5790,    5787,    7383,    7382,    7362,    7363
     827,    2265,    2266,    2286,    2285,     659,     660,     680,     679,    6993,    6992,    6952,    6994,    5747,    5787,    5788,    5785,    7384,    7383,    7363,    7364
     828,    2264,    2265,    2285,    2284,     658,     659,     679,     678,    6995,    6994,    6954,    6996,    5745,    5785,    5786,    5783,    7385,    7384,    7364,    7365
     829,    2263,    2264,    2284,    2283,     657,     658,     678,     677,    6997,    6996,    6956,    6998,    5743,    5783,    5784,    5781,    7386,    7385,    7365,    7366
     830,    2262,    2263,    2283,    2282,     656,     657,     677,     676,    6999,    6998,    6958,    7000,    5741,    5781,    5782,    5779,    7387,    7386,    7366,    7367
     831,    2261,    2262,    2282,    2281,     655,     656,     676,     675,    7001,    7000,    6960,    7002,    5739,    5779,    5780,    5777,    7388,    7387,    7367,    7368
     832,    2260,    2261,    2281,    2280,     654,     655,     675,     674,    7003,    7002,    6962,    7004,    5737,    5777,    5778,    5775,    7389,    7388,    7368,    7369
     833,    2259,    2260,    2280,    2279,     653,     654,     674,     673,    7005,    7004,    6964,    7006,    5735,    5775,    5776,    5773,    7390,    7389,    7369,    7370
     834,    2258,    2259,    2279,    2278,     652,     653,     673,     672,    7007,    7006,    6966,    7008,    5733,    5773,    5774,    5771,    7391,    7390,    7370,    7371
     835,    2257,    2258,    2278,    2277,     651,     652,     672,     671,    7009,    7008,    6968,    7010,    5731,    5771,    5772,    5769,    7392,    7391,    7371,    7372
     836,    2256,    2257,    2277,    2276,     650,     651,     671,     670,    7011,    7010,    6970,    7012,    5729,    5769,    5770,    5767,    7393,    7392,    7372,    7373
     837,    2255,    2256,    2276,    2275,     649,     650,     670,     669,    7013,    7012,    6972,    7014,    5727,    5767,    5768,    5765,    7394,    7393,    7373,    7374
     838,    2254,    2255,    2275,    2274,     648,     649,     669,     668,    7015,    7014,    6974,    7016,    5725,    5765,    5766,    5763,    7395,    7394,    7374,    7375
     839,    2253,    2254,    2274,    2273,     647,     648,     668,     667,    7017,    7016,    6976,    7018,    5723,    5763,    5764,    5761,    7396,    7395,    7375,    7376
     840,    2202,    2253,    2273,    2203,     625,     647,     667,     624,    7019,    7018,    6978,    6390,    5721,    5761,    5762,    5676,    7082,    7396,    7376,    7083
     841,    2252,    2217,    2218,    2272,     646,     610,     609,     666,    7020,    6356,    6979,    7021,    5719,    5660,    5760,    5758,    7397,    6372,    6373,    7377
     842,    2251,    2252,    2272,    2271,     645,     646,     666,     665,    7022,    7021,    6981,    7023,    5718,    5758,    5759,    5756,    7398,    7397,    7377,    7378
     843,    2250,    2251,    2271,    2270,     644,     645,     665,     664,    7024,    7023,    6983,    7025,    5716,    5756,    5757,    5754,    7399,    7398,    7378,    7379
     844,    2249,    2250,    2270,    2269,     643,     644,     664,     663,    7026,    7025,    6985,    7027,    5714,    5754,    5755,    5752,    7400,    7399,    7379,    7380
     845,    2248,    2249,    2269,    2268,     642,     643,     663,     662,    7028,    7027,    6987,    7029,    5712,    5752,    5753,    5750,    7401,    7400,    7380,    7381
     846,    2247,    2248,    2268,    2267,     641,     642,     662,     661,    7030,    7029,    6989,    7031,    5710,    5750,    5751,    5748,    7402,    7401,    7381,    7382
     847,    2246,    2247,    2267,    2266,     640,     641,     661,     660,    7032,    7031,    6991,    7033,    5708,    5748,    5749,    5746,    7403,    7402,    7382,    7383
     848,    2245,    2246,    2266,    2265,     639,     640,     660,     659,    7034,    7033,    6993,    7035,    5706,    5746,    5747,    5744,    7404,    7403,    7383,    7384
     849,    2244,    2245,    2265,    2264,     638,     639,     659,     658,    7036,    7035,    6995,    7037,    5704,    5744,    5745,    5742,    7405,    7404,    7384,    7385
     850,    2243,    2244,    2264,    2263,     637,     638,     658,     657,    7038,    7037,    6997,    7039,    5702,    5742,    5743,    5740,    7406,    7405,    7385,    7386
     851,    2242,    2243,    2263,    2262,     636,     637,     657,     656,    7040,    7039,    6999,    7041,    5700,    5740,    5741,    5738,    7407,    7406,    7386,    7387
     852,    2241,    2242,    2262,    2261,     635,     636,     656,     655,    7042,    7041,    7001,    7043,    5698,    5738,    5739,    5736,    7408,    7407,    7387,    7388
     853,    2240,    2241,    2261,    2260,     634,     635,     655,     654,    7044,    7043,    7003,    7045,    5696,    5736,    5737,    5734,    7409,    7408,    7388,    7389
     854,    2239,    2240,    2260,    2259,     633,     634,     654,     653,    7046,    7045,    7005,    7047,    5694,    5734,    5735,    5732,    7410,    7409,    7389,    7390
     855,    2238,    2239,    2259,    2258,     632,     633,     653,     652,    7048,    7047,    7007,    7049,    5692,    5732,    5733,    5730,    7411,    7410,    7390,    7391
     856,    2237,    2238,    2258,    2257,     631,     632,     652,     651,    7050,    7049,    7009,    7051,    5690,    5730,    5731,    5728,    7412,    7411,    7391,    7392
     857,    2236,    2237,    2257,    2256,     630,     631,     651,     650,    7052,    7051,    7011,    7053,    5688,    5728,    5729,    5726,    7413,    7412,    7392,    7393
     858,    2235,    2236,    2256,    2255,     629,     630,     650,     649,    7054,    7053,    7013,    7055,    5686,    5726,    5727,    5724,    7414,    7413,    7393,    7394
     859,    2234,    2235,    2255,    2254,     628,     629,     649,     648,    7056,    7055,    7015,    7057,    5684,    5724,    5725,    5722,    7415,    7414,    7394,    7395
     860,    2233,    2234,    2254,    2253,     627,     628,     648,     647,    7058,    7057,    7017,    7059,    5682,    5722,    5723,    5720,    7416,    7415,    7395,    7396
     861,    2201,    2233,    2253,    2202,     626,     627,     647,     625,    7060,    7059,    7019,    6389,    5680,    5720,    5721,    5677,    7081,    7416,    7396,    7082
     862,    1656,    1607,    2217,    2252,     487,     485,     610,     646,    2838,    6355,    7020,    7061,    2840,    5661,    5719,    5717,    2861,    2817,    6372,    7397
     863,    1655,    1656,    2252,    2251,     488,     487,     646,     645,    2837,    7061,    7022,    7062,    2841,    5717,    5718,    5715,    2862,    2861,    7397,    7398
     864,    1654,    1655,    2251,    2250,     489,     488,     645,     644,    2836,    7062,    7024,    7063,    2842,    5715,    5716,    5713,    2863,    2862,    7398,    7399
     865,    1653,    1654,    2250,    2249,     490,     489,     644,     643,    2835,    7063,    7026,    7064,    2843,    5713,    5714,    5711,    2864,    2863,    7399,    7400
     866,    1652,    1653,    2249,    2248,     491,     490,     643,     642,    2834,    7064,    7028,    7065,    2844,    5711,    5712,    5709,    2865,    2864,    7400,    7401
     867,    1651,    1652,    2248,    2247,     492,     491,     642,     641,    2833,    7065,    7030,    7066,    2845,    5709,    5710,    5707,    2866,    2865,    7401,    7402
     868,    1650,    1651,    2247,    2246,     493,     492,     641,     640,    2832,    7066,    7032,    7067,    2846,    5707,    5708,    5705,    2867,    2866,    7402,    7403
     869,    1649,    1650,    2246,    2245,     494,     493,     640,     639,    2831,    7067,    7034,    7068,    2847,    5705,    5706,    5703,    2868,    2867,    7403,    7404
     870,    1648,    1649,    2245,    2244,     495,     494,     639,     638,    2830,    7068,    7036,    7069,    2848,    5703,    5704,    5701,    2869,    2868,    7404,    7405
     871,    1647,    1648,    2244,    2243,     496,     495,     638,     637,    2829,    7069,    7038,    7070,    2849,    5701,    5702,    5699,    2870,    2869,    7405,    7406
     872,    1646,    1647,    2243,    2242,     497,     496,     637,     636,    2828,    7070,    7040,    7071,    2850,    5699,    5700,    5697,    2871,    2870,    7406,    7407
     873,    1645,    1646,    2242,    2241,     498,     497,     636,     635,    2827,    7071,    7042,    7072,    2851,    5697,    5698,    5695,    2872,    2871,    7407,    7408
     874,    1644,    1645,    2241,    2240,     499,     498,     635,     634,    2826,    7072,    7044,    7073,    2852,    5695,    5696,    5693,    2873,    2872,    7408,    7409
     875,    1643,    1644,    2240,    2239,     500,     499,     634,     633,    2825,    7073,    7046,    7074,    2853,    5693,    5694,    5691,    2874,    2873,    7409,    7410
     876,    1642,    1643,    2239,    2238,     501,     500,     633,     632,    2824,    7074,    7048,    7075,    2854,    5691,    5692,    5689,    2875,    2874,    7410,    7411
     877,    1641,    1642,    2238,    2237,     502,     501,     632,     631,    2823,    7075,    7050,    7076,    2855,    5689,    5690,    5687,    2876,    2875,    7411,    7412
     878,    1640,    1641,    2237,    2236,     503,     502,     631,     630,    2822,    7076,    7052,    7077,    2856,    5687,    5688,    5685,    2877,    2876,    7412,    7413
     879,    1639,    1640,    2236,    2235,     504,     503,     630,     629,    2821,    7077,    7054,    7078,    2857,    5685,    5686,    5683,    2878,    2877,    7413,    7414
     880,    1638,    1639,    2235,    2234,     505,     504,     629,     628,    2820,    7078,    7056,    7079,    2858,    5683,    5684,    5681,    2879,    2878,    7414,    7415
     881,    1637,    1638,    2234,    2233,     506,     505,     628,     627,    2819,    7079,    7058,    7080,    2859,    5681,    5682,    5679,    2880,    2879,    7415,    7416
     882,    1633,    1637,    2233,    2201,     486,     506,     627,     626,    2818,    7080,    7060,    6388,    2860,    5679,    5680,    5678,    2839,    2880,    7416,    7081
     883,    2816,    2565,    1760,    1800,    1408,    1156,       1,       3,    8069,    8019,    3356,    8070,    7998,    7493,    3314,    8018,    8581,    8043,    3335,    3376
     884,    2815,    2816,    1800,    1799,    1407,    1408,       3,       4,    8071,    8070,    3355,    8072,    7997,    8018,    3315,    8017,    8582,    8581,    3376,    3375
     885,    2814,    2815,    1799,    1798,    1406,    1407,       4,       5,    8073,    8072,    3354,    8074,    7995,    8017,    3316,    8016,    8583,    8582,    3375,    3374
     886,    2813,    2814,    1798,    1797,    1405,    1406,       5,       6,    8075,    8074,    3353,    8076,    7993,    8016,    3317,    8015,    8584,    8583,    3374,    3373
     887,    2812,    2813,    1797,    1796,    1404,    1405,       6,       7,    8077,    8076,    3352,    8078,    7991,    8015,    3318,    8014,    8585,    8584,    3373,    3372
     888,    2811,    2812,    1796,    1795,    1403,    1404,       7,       8,    8079,    8078,    3351,    8080,    7989,    8014,    3319,    8013,    8586,    8585,    3372,    3371
     889,    2810,    2811,    1795,    1794,    1402,    1403,       8,       9,    8081,    8080,    3350,    8082,    7987,    8013,    3320,    8012,    8587,    8586,    3371,    3370
     890,    2809,    2810,    1794,    1793,    1401,    1402,       9,      10,    8083,    8082,    3349,    8084,    7985,    8012,    3321,    8011,    8588,    8587,    3370,    3369
     891,    2808,    2809,    1793,    1792,    1400,    1401,      10,      11,    8085,    8084,    3348,    8086,    7983,    8011,    3322,    8010,    8589,    8588,    3369,    3368
     892,    2807,    2808,    1792,    1791,    1399,    1400,      11,      12,    8087,    8086,    3347,    8088,    7981,    8010,    3323,    8009,    8590,    8589,    3368,    3367
     893,    2806,    2807,    1791,    1790,    1398,    1399,      12,      13,    8089,    8088,    3346,    8090,    7979,    8009,    3324,    8008,    8591,    8590,    3367,    3366
     894,    2805,    2806,    1790,    1789,    1397,    1398,      13,      14,    8091,    8090,    3345,    8092,    7977,    8008,    3325,    8007,    8592,    8591,    3366,    3365
     895,    2804,    2805,    1789,    1788,    1396,    1397,      14,      15,    8093,    8092,    3344,    8094,    7975,    8007,    3326,    8006,    8593,    8592,    3365,    3364
     896,    2803,    2804,    1788,    1787,    1395,    1396,      15,      16,    8095,    8094,    3343,    8096,    7973,    8006,    3327,    8005,    8594,    8593,    3364,    3363
     897,    2802,    2803,    1787,    1786,    1394,    1395,      16,      17,    8097,    8096,    3342,    8098,    7971,    8005,    3328,    8004,    8595,    8594,    3363,    3362
     898,    2801,    2802,    1786,    1785,    1393,    1394,      17,      18,    8099,    8098,    3341,    8100,    7969,    8004,    3329,    8003,    8596,    8595,    3362,    3361
     899,    2800,    2801,    1785,    1784,    1392,    1393,      18,      19,    8101,    8100,    3340,    8102,    7967,    8003,    3330,    8002,    8597,    8596,    3361,    3360
     900,    2799,    2800,    1784,    1783,    1391,    1392,      19,      20,    8103,    8102,    3339,    8104,    7965,    8002,    3331,    8001,    8598,    8597,    3360,    3359
     901,    2798,    2799,    1783,    1782,    1390,    1391,      20,      21,    8105,    8104,    3338,    8106,    7963,    8001,    3332,    8000,    8599,    8598,    3359,    3358
     902,    2797,    2798,    1782,    1781,    1389,    1390,      21,      22,    8107,    8106,    3337,    8108,    7961,    8000,    3333,    7999,    8600,    8599,    3358,    3357
     903,    2553,    2797,    1781,    1717,    1168,    1389,      22,       2,    8109,    8108,    3336,    8044,    7959,    7999,    3334,    7506,    8068,    8600,    3357,    3313
     904,    2796,    2566,    2565,    2816,    1388,    1155,    1156,    1408,    8110,    8020,    8069,    8111,    7957,    7492,    7998,    7996,    8601,    8042,    8043,    8581
     905,    2795,    2796,    2816,    2815,    1387,    1388,    1408,    1407,    8112,    8111,    8071,    8113,    7956,    7996,    7997,    7994,    8602,    8601,    8581,    8582
     906,    2794,    2795,    2815,    2814,    1386,    1387,    1407,    1406,    8114,    8113,    8073,    8115,    7954,    7994,    7995,    7992,    8603,    8602,    8582,    8583
     907,    2793,    2794,    2814,    2813,    1385,    1386,    1406,    1405,    8116,    8115,    8075,    8117,    7952,    7992,    7993,    7990,    8604,    8603,    8583,    8584
     908,    2792,    2793,    2813,    2812,    1384,    1385,    1405,    1404,    8118,    8117,    8077,    8119,    7950,    7990,    7991,    7988,    8605,    8604,    8584,    8585
     909,    2791,    2792,    2812,    2811,    1383,    1384,    1404,    1403,    8120,    8119,    8079,    8121,    7948,    7988,    7989,    7986,    8606,    8605,    8585,    8586
     910,    2790,    2791,    2811,    2810,    1382,    1383,    1403,    1402,    8122,    8121,    8081,    8123,    7946,    7986,    7987,    7984,    8607,    8606,    8586,    8587
     911,    2789,    2790,    2810,    2809,    1381,    1382,    1402,    1401,    8124,    8123,    8083,    8125,    7944,    7984,    7985,    7982,    8608,    8607,    8587,    8588
     912,    2788,    2789,    2809,    2808,    1380,    1381,    1401,    1400,    8126,    8125,    8085,    8127,    7942,    7982,    7983,    7980,    8609,    8608,    8588,    8589
     913,    2787,    2788,    2808,    2807,    1379,    1380,    1400,    1399,    8128,    8127,    8087,    8129,    7940,    7980,    7981,    7978,    8610,    8609,    8589,    8590
     914,    2786,    2787,    2807,    2806,    1378,    1379,    1399,    1398,    8130,    8129,    8089,    8131,    7938,    7978,    7979,    7976,    8611,    8610,    8590,    8591
     915,    2785,    2786,    2806,    2805,    1377,    1378,    1398,    1397,    8132,    8131,    8091,    8133,    7936,    7976,    7977,    7974,    8612,    8611,    8591,    8592
     916,    2784,    2785,    2805,    2804,    1376,    1377,    1397,    1396,    8134,    8133,    8093,    8135,    7934,    7974,    7975,    7972,    8613,    8612,    8592,    8593
     917,    2783,    2784,    2804,    2803,    1375,    1376,    1396,    1395,    8136,    8135,    8095,    8137,    7932,    7972,    7973,    7970,    8614,    8613,    8593,    8594
     918,    2782,    2783,    2803,    2802,    1374,    1375,    1395,    1394,    8138,    8137,    8097,    8139,    7930,    7970,    7971,    7968,    8615,    8614,    8594,    8595
     919,    2781,    2782,    2802,    2801,    1373,    1374,    1394,    1393,    8140,    8139,    8099,    8141,    7928,    7968,    7969,    7966,    8616,    8615,    8595,    8596
     920,    2780,    2781,    2801,    2800,    1372,    1373,    1393,    1392,    8142,    8141,    8101,    8143,    7926,    7966,    7967,    7964,    8617,    8616,    8596,    8597
     921,    2779,    2780,    2800,    2799,    1371,    1372,    1392,    1391,    8144,    8143,    8103,    8145,    7924,    7964,    7965,    7962,    8618,    8617,    8597,    8598
     922,    2778,    2779,    2799,    2798,    1370,    1371,    1391,    1390,    8146,    8145,    8105,    8147,    7922,    7962,    7963,    7960,    8619,    8618,    8598,    8599
     923,    2777,    2778,    2798,    2797,    1369,    1370,    1390,    1389,    8148,    8147,    8107,    8149,    7920,    7960,    7961,    7958,    8620,    8619,    8599,    8600
     924,    2554,    2777,    2797,    2553,    1167,    1369,    1389,    1168,    8150,    8149,    8109,    8045,    7918,    7958,    7959,    7505,    8067,    8620,    8600,    8068
     925,    2776,    2567,    2566,    2796,    1368,    1154,    1155,    1388,    8151,    8021,    8110,    8152,    7916,    7491,    7957,    7955,    8621,    8041,    8042,    8601
     926,    2775,    2776,    2796,    2795,    1367,    1368,    1388,    1387,    8153,    8152,    8112,    8154,    7915,    7955,    7956,    7953,    8622,    8621,    8601,    8602
     927,    2774,    2775,    2795,    2794,    1366,    1367,    1387,    1386,    8155,    8154,    8114,    8156,    7913,    7953,    7954,    7951,    8623,    8622,    8602,    8603
     928,    2773,    2774,    2794,    2793,    1365,    1366,    1386,    1385,    8157,    8156,    8116,    8158,    7911,    7951,    7952,    7949,    8624,    8623,    8603,    8604
     929,    2772,    2773,    2793,    2792,    1364,    1365,    1385,    1384,    8159,    8158,    8118,    8160,    7909,    7949,    7950,    7947,    8625,    8624,    8604,    8605
     930,    2771,    2772,    2792,    2791,    1363,    1364,    1384,    1383,    8161,    8160,    8120,    8162,    7907,    7947,    7948,    7945,    8626,    8625,    8605,    8606
     931,    2770,    2771,    2791,    2790,    1362,    1363,    1383,    1382,    8163,    8162,    8122,    8164,    7905,    7945,    7946,    7943,    8627,    8626,    8606,    8607
     932,    2769,    2770,    2790,    2789,    1361,    1362,    1382,    1381,    8165,    8164,    8124,    8166,    7903,    7943,    7944,    7941,    8628,    8627,    8607,    8608
     933,    2768,    2769,    2789,    2788,    1360,    1361,    1381,    1380,    8167,    8166,    8126,    8168,    7901,    7941,    7942,    7939,    8629,    8628,    8608,    8609
     934,    2767,    2768,    2788,    2787,    1359,    1360,    1380,    1379,    8169,    8168,    8128,    8170,    7899,    7939,    7940,    7937,    8630,    8629,    8609,    8610
     935,    2766,    2767,    2787,    2786,    1358,    1359,    1379,    1378,    8171,    8170,    8130,    8172,    7897,    7937,    7938,    7935,    8631,    8630,    8610,    8611
     936,    2765,    2766,    2786,    2785,    1357,    1358,    1378,    1377,    8173,    8172,    8132,    8174,    7895,    7935,    7936,    7933,    8632,    8631,    8611,    8612
     937,    2764,    2765,    2785,    2784,    1356,    1357,    1377,    1376,    8175,    8174,    8134,    8176,    7893,    7933,    7934,    7931,    8633,    8632,    8612,    8613
     938,    2763,    2764,    2784,    2783,    1355,    1356,    1376,    1375,    8177,    8176,    8136,    8178,    7891,    7931,    7932,    7929,    8634,    8633,    8613,    8614
     939,    2762,    2763,    2783,    2782,    1354,    1355,    1375,    1374,    8179,    8178,    8138,    8180,    7889,    7929,    7930,    7927,    8635,    8634,    8614,    8615
     940,    2761,    2762,    2782,    2781,    1353,    1354,    1374,    1373,    8181,    8180,    8140,    8182,    7887,    7927,    7928,    7925,    8636,    8635,    8615,    8616
     941,    2760,    2761,    2781,    2780,    1352,    1353,    1373,    1372,    8183,    8182,    8142,    8184,    7885,    7925,    7926,    7923,    8637,    8636,    8616,    8617
     942,    2759,    2760,    2780,    2779,    1351,    1352,    1372,    1371,    8185,    8184,    8144,    8186,    7883,    7923,    7924,    7921,    8638,    8637,    8617,    8618
     943,    2758,    2759,    2779,    2778,    1350,    1351,    1371,    1370,    8187,    8186,    8146,    8188,    7881,    7921,    7922,    7919,    8639,    8638,    8618,    8619
     944,    2757,    2758,    2778,    2777,    1349,    1350,    1370,    1369,    8189,    8188,    8148,    8190,    7879,    7919,    7920,    7917,    8640,    8639,    8619,    8620
     945,    2555,    2757,    2777,    2554,    1166,    1349,    1369,    1167,    8191,    8190,    8150,    8046,    7877,    7917,    7918,    7504,    8066,    8640,    8620,    8067
     946,    2756,    2568,    2567,    2776,    1348,    1153,    1154,    1368,    8192,    8022,    8151,    8193,    7875,    7490,    7916,    7914,    8641,    8040,    8041,    8621
     947,    2755,    2756,    2776,    2775,    1347,    1348,    1368,    1367,    8194,    8193,    8153,    8195,    7874,    7914,    7915,    7912,    8642,    8641,    8621,    8622
     948,    2754,    2755,    2775,    2774,    1346,    1347,    1367,    1366,    8196,    8195,    8155,    8197,    7872,    7912,    7913,    7910,    8643,    8642,    8622,    8623
     949,    2753,    2754,    2774,    2773,    1345,    1346,    1366,    1365,    8198,    8197,    8157,    8199,    7870,    7910,    7911,    7908,    8644,    8643,    8623,    8624
     950,    2752,    2753,    2773,    2772,    1344,    1345,    1365,    1364,    8200,    8199,    8159,    8201,    7868,    7908,    7909,    7906,    8645,    8644,    8624,    8625
     951,    2751,    2752,    2772,    2771,    1343,    1344,    1364,    1363,    8202,    8201,    8161,    8203,    7866,    7906,    7907,    7904,    8646,    8645,    8625,    8626
     952,    2750,    2751,    2771,    2770,    1342,    1343,    1363,    1362,    8204,    8203,    8163,    8205,    7864,    7904,    7905,    7902,    8647,    8646,    8626,    8627
     953,    2749,    2750,    2770,    2769,    1341,    1342,    1362,    1361,    8206,    8205,    8165,    8207,    7862,    7902,    7903,    7900,    8648,    8647,    8627,    8628
     954,    2748,    2749,    2769,    2768,    1340,    1341,    1361,    1360,    8208,    8207,    8167,    8209,    7860,    7900,    7901,    7898,    8649,    8648,    8628,    8629
     955,    2747,    2748,    2768,    2767,    1339,    1340,    1360,    1359,    8210,    8209,    8169,    8211,    7858,    7898,    7899,    7896,    8650,    8649,    8629,    8630
     956,    2746,    2747,    2767,    2766,    1338,    1339,    1359,    1358,    8212,    8211,    8171,    8213,    7856,    7896,    7897,    7894,    8651,    8650,    8630,    8631
     957,    2745,    2746,    2766,    2765,    1337,    1338,    1358,    1357,    8214,    8213,    8173,    8215,    7854,    7894,    7895,    7892,    8652,    8651,    8631,    8632
     958,    2744,    2745,    2765,    2764,    1336,    1337,    1357,    1356,    8216,    8215,    8175,    8217,    7852,    7892,    7893,    7890,    8653,    8652,    8632,    8633
     959,    2743,    2744,    2764,    2763,    1335,    1336,    1356,    1355,    8218,    8217,    8177,    8219,    7850,    7890,    7891,    7888,    8654,    8653,    8633,    8634
     960,    2742,    2743,    2763,    2762,    1334,    1335,    1355,    1354,    8220,    8219,    8179,    8221,    7848,    7888,    7889,    7886,    8655,    8654,    8634,    8635
     961,    2741,    2742,    2762,    2761,    1333,    1334,    1354,    1353,    8222,    8221,    8181,    8223,    7846,    7886,    7887,    7884,    8656,    8655,    8635,    8636
     962,    2740,    2741,    2761,    2760,    1332,    1333,    1353,    1352,    8224,    8223,    8183,    8225,    7844,    7884,    7885,    7882,    8657,    8656,    8636,    8637
     963,    2739,    2740,    2760,    2759,    1331,    1332,    1352,    1351,    8226,    8225,    8185,    8227,    7842,    7882,    7883,    7880,    8658,    8657,    8637,    8638
     964,    2738,    2739,    2759,    2758,    1330,    1331,    1351,    1350,    8228,    8227,    8187,    8229,    7840,    7880,    7881,    7878,    8659,    8658,    8638,    8639
     965,    2737,    2738,    2758,    2757,    1329,    1330,    1350,    1349,    8230,    8229,    8189,    8231,    7838,    7878,    7879,    7876,    8660,    8659,    8639,    8640
     966,    2556,    2737,    2757,    2555,    1165,    1329,    1349,    1166,    8232,    8231,    8191,    8047,    7836,    7876,    7877,    7503,    8065,    8660,    8640,    8066
     967,    2736,    2569,    2568,    2756,    1328,    1152,    1153,    1348,    8233,    8023,    8192,    8234,    7834,    7489,    7875,    7873,    8661,    8039,    8040,    8641
     968,    2735,    2736,    2756,    2755,    1327,    1328,    1348,    1347,    8235,    8234,    8194,    8236,    7833,    7873,    7874,    7871,    8662,    8661,    8641,    8642
     969,    2734,    2735,    2755,    2754,    1326,    1327,    1347,    1346,    8237,    8236,    8196,    8238,    7831,    7871,    7872,    7869,    8663,    8662,    8642,    8643
     970,    2733,    2734,    2754,    2753,    1325,    1326,    1346,    1345,    8239,    8238,    8198,    8240,    7829,    7869,    7870,    7867,    8664,    8663,    8643,    8644
     971,    2732,    2733,    2753,    2752,    1324,    1325,    1345,    1344,    8241,    8240,    8200,    8242,    7827,    7867,    7868,    7865,    8665,    8664,    8644,    8645
     972,    2731,    2732,    2752,    2751,    1323,    1324,    1344,    1343,    8243,    8242,    8202,    8244,    7825,    7865,    7866,    7863,    8666,    8665,    8645,    8646
     973,    2730,    2731,    2751,    2750,    1322,    1323,    1343,    1342,    8245,    8244,    8204,    8246,    7823,    7863,    7864,    7861,    8667,    8666,    8646,    8647
     974,    2729,    2730,    2750,    2749,    1321,    1322,    1342,    1341,    8247,    8246,    8206,    8248,    7821,    7861,    7862,    7859,    8668,    8667,    8647,    8648
     975,    2728,    2729,    2749,    2748,    1320,    1321,    1341,    1340,    8249,    8248,    8208,    8250,    7819,    7859,    7860,    7857,    8669,    8668,    8648,    8649
     976,    2727,    2728,    2748,    2747,    1319,    1320,    1340,    1339,    8251,    8250,    8210,    8252,    7817,    7857,    7858,    7855,    8670,    8669,    8649,    8650
     977,    2726,    2727,    2747,    2746,    1318,    1319,    1339,    1338,    8253,    8252,    8212,    8254,    7815,    7855,    7856,    7853,    8671,    8670,    8650,    8651
     978,    2725,    2726,    2746,    2745,    1317,    1318,    1338,    1337,    8255,    8254,    8214,    8256,    7813,    7853,    7854,    7851,    8672,    8671,    8651,    8652
     979,    2724,    2725,    2745,    2744,    1316,    1317,    1337,    1336,    8257,    8256,    8216,    8258,    7811,    7851,    7852,    7849,    8673,    8672,    8652,    8653
     980,    2723,    2724,    2744,    2743,    1315,    1316,    1336,    1335,    8259,    8258,    8218,    8260,    7809,    7849,    7850,    7847,    8674,    8673,    8653,    8654
     981,    2722,    2723,    2743,    2742,    1314,    1315,    1335,    1334,    8261,    8260,    8220,    8262,    7807,    7847,    7848,    7845,    8675,    8674,    8654,    8655
     982,    2721,    2722,    2742,    2741,    1313,    1314,    1334,    1333,    8263,    8262,    8222,    8264,    7805,    7845,    7846,    7843,    8676,    8675,    8655,    8656
     983,    2720,    2721,    2741,    2740,    1312,    1313,    1333,    1332,    8265,    8264,    8224,    8266,    7803,    7843,    7844,    7841,    8677,    8676,    8656,    8657
     984,    2719,    2720,    2740,    2739,    1311,    1312,    1332,    1331,    8267,    8266,    8226,    8268,    7801,    7841,    7842,    7839,    8678,    8677,    8657,    8658
     985,    2718,    2719,    2739,    2738,    1310,    1311,    1331,    1330,    8269,    8268,    8228,    8270,    7799,    7839,    7840,    7837,    8679,    8678,    8658,    8659
     986,    2717,    2718,    2738,    2737,    1309,    1310,    1330,    1329,    8271,    8270,    8230,    8272,    7797,    7837,    7838,    7835,    8680,    8679,    8659,    8660
     987,    2557,    2717,    2737,    2556,    1164,    1309,    1329,    1165,    8273,    8272,    8232,    8048,    7795,    7835,    7836,    7502,    8064,    8680,    8660,    8065
     988,    2716,    2570,    2569,    2736,    1308,    1151,    1152,    1328,    8274,    8024,    8233,    8275,    7793,    7488,    7834,    7832,    8681,    8038,    8039,    8661
     989,    2715,    2716,    2736,    2735,    1307,    1308,    1328,    1327,    8276,    8275,    8235,    8277,    7792,    7832,    7833,    7830,    8682,    8681,    8661,    8662
     990,    2714,    2715,    2735,    2734,    1306,    1307,    1327,    1326,    8278,    8277,    8237,    8279,    7790,    7830,    7831,    7828,    8683,    8682,    8662,    8663
     991,    2713,    2714,    2734,    2733,    1305,    1306,    1326,    1325,    8280,    8279,    8239,    8281,    7788,    7828,    7829,    7826,    8684,    8683,    8663,    8664
     992,    2712,    2713,    2733,    2732,    1304,    1305,    1325,    1324,    8282,    8281,    8241,    8283,    7786,    7826,    7827,    7824,    8685,    8684,    8664,    8665
     993,    2711,    2712,    2732,    2731,    1303,    1304,    1324,    1323,    8284,    8283,    8243,    8285,    7784,    7824,    7825,    7822,    8686,    8685,    8665,    8666
     994,    2710,    2711,    2731,    2730,    1302,    1303,    1323,    1322,    8286,    8285,    8245,    8287,    7782,    7822,    7823,    7820,    8687,    8686,    8666,    8667
     995,    2709,    2710,    2730,    2729,    1301,    1302,    1322,    1321,    8288,    8287,    8247,    8289,    7780,    7820,    7821,    7818,    8688,    8687,    8667,    8668
     996,    2708,    2709,    2729,    2728,    1300,    1301,    1321,    1320,    8290,    8289,    8249,    8291,    7778,    7818,    7819,    7816,    8689,    8688,    8668,    8669
     997,    2707,    2708,    2728,    2727,    1299,    1300,    1320,    1319,    8292,    8291,    8251,    8293,    7776,    7816,    7817,    7814,    8690,    8689,    8669,    8670
     998,    2706,    2707,    2727,    2726,    1298,    1299,    1319,    1318,    8294,    8293,    8253,    8295,    7774,    7814,    7815,    7812,    8691,    8690,    8670,    8671
     999,    2705,    2706,    2726,    2725,    1297,    1298,    1318,    1317,    8296,    8295,    8255,    8297,    7772,    7812,    7813,    7810,    8692,    8691,    8671,    8672
    1000,    2704,    2705,    2725,    2724,    1296,    1297,    1317,    1316,    8298,    8297,    8257,    8299,    7770,    7810,    7811,    7808,    8693,    8692,    8672,    8673
    1001,    2703,    2704,    2724,    2723,    1295,    1296,    1316,    1315,    8300,    8299,    8259,    8301,    7768,    7808,    7809,    7806,    8694,    8693,    8673,    8674
    1002,    2702,    2703,    2723,    2722,    1294,    1295,    1315,    1314,    8302,    8301,    8261,    8303,    7766,    7806,    7807,    7804,    8695,    8694,    8674,    8675
    1003,    2701,    2702,    2722,    2721,    1293,    1294,    1314,    1313,    8304,    8303,    8263,    8305,    7764,    7804,    7805,    7802,    8696,    8695,    8675,    8676
    1004,    2700,    2701,    2721,    2720,    1292,    1293,    1313,    1312,    8306,    8305,    8265,    8307,    7762,    7802,    7803,    7800,    8697,    8696,    8676,    8677
    1005,    2699,    2700,    2720,    2719,    1291,    1292,    1312,    1311,    8308,    8307,    8267,    8309,    7760,    7800,    7801,    7798,    8698,    8697,    8677,    8678
    1006,    2698,    2699,    2719,    2718,    1290,    1291,    1311,    1310,    8310,    8309,    8269,    8311,    7758,    7798,    7799,    7796,    8699,    8698,    8678,    8679
    1007,    2697,    2698,    2718,    2717,    1289,    1290,    1310,    1309,    8312,    8311,    8271,    8313,    7756,    7796,    7797,    7794,    8700,    8699,    8679,    8680
    1008,    2558,    2697,    2717,    2557,    1163,    1289,    1309,    1164,    8314,    8313,    8273,    8049,    7754,    7794,    7795,    7501,    8063,    8700,    8680,    8064
    1009,    2696,    2571,    2570,    2716,    1288,    1150,    1151,    1308,    8315,    8025,    8274,    8316,    7752,    7487,    7793,    7791,    8701,    8037,    8038,    8681
    1010,    2695,    2696,    2716,    2715,    1287,    1288,    1308,    1307,    8317,    8316,    8276,    8318,    7751,    7791,    7792,    7789,    8702,    8701,    8681,    8682
    1011,    2694,    2695,    2715,    2714,    1286,    1287,    1307,    1306,    8319,    8318,    8278,    8320,    7749,    7789,    7790,    7787,    8703,    8702,    8682,    8683
    1012,    2693,    2694,    2714,    2713,    1285,    1286,    1306,    1305,    8321,    8320,    8280,    8322,    7747,    7787,    7788,    7785,    8704,    8703,    8683,    8684
    1013,    2692,    2693,    2713,    2712,    1284,    1285,    1305,    1304,    8323,    8322,    8282,    8324,    7745,    7785,    7786,    7783,    8705,    8704,    8684,    8685
    1014,    2691,    2692,    2712,    2711,    1283,    1284,    1304,    1303,    8325,    8324,    8284,    8326,    7743,    7783,    7784,    7781,    8706,    8705,    8685,    8686
    1015,    2690,    2691,    2711,    2710,    1282,    1283,    1303,    1302,    8327,    8326,    8286,    8328,    7741,    7781,    7782,    7779,    8707,    8706,    8686,    8687
    1016,    2689,    2690,    2710,    2709,    1281,    1282,    1302,    1301,    8329,    8328,    8288,    8330,    7739,    7779,    7780,    7777,    8708,    8707,    8687,    8688
    1017,    2688,    2689,    2709,    2708,    1280,    1281,    1301,    1300,    8331,    8330,    8290,    8332,    7737,    7777,    7778,    7775,    8709,    8708,    8688,    8689
    1018,    2687,    2688,    2708,    2707,    1279,    1280,    1300,    1299,    8333,    8332,    8292,    8334,    7735,    7775,    7776,    7773,    8710,    8709,    8689,    8690
    1019,    2686,    2687,    2707,    2706,    1278,    1279,    1299,    1298,    8335,    8334,    8294,    8336,    7733,    7773,    7774,    7771,    8711,    8710,    8690,    8691
    1020,    2685,    2686,    2706,    2705,    1277,    1278,    1298,    1297,    8337,    8336,    8296,    8338,    7731,    7771,    7772,    7769,    8712,    8711,    8691,    8692
    1021,    2684,    2685,    2705,    2704,    1276,    1277,    1297,    1296,    8339,    8338,    8298,    8340,    7729,    7769,    7770,    7767,    8713,    8712,    8692,    8693
    1022,    2683,    2684,    2704,    2703,    1275,    1276,    1296,    1295,    8341,    8340,    8300,    8342,    7727,    7767,    7768,    7765,    8714,    8713,    8693,    8694
    1023,    2682,    2683,    2703,    2702,    1274,    1275,    1295,    1294,    8343,    8342,    8302,    8344,    7725,    7765,    7766,    7763,    8715,    8714,    8694,    8695
    1024,    2681,    2682,    2702,    2701,    1273,    1274,    1294,    1293,    8345,    8344,    8304,    8346,    7723,    7763,    7764,    7761,    8716,    8715,    8695,    8696
    1025,    2680,    2681,    2701,    2700,    1272,    1273,    1293,    1292,    8347,    8346,    8306,    8348,    7721,    7761,    7762,    7759,    8717,    8716,    8696,    8697
    1026,    2679,    2680,    2700,    2699,    1271,    1272,    1292,    1291,    8349,    8348,    8308,    8350,    7719,    7759,    7760,    7757,    8718,    8717,    8697,    8698
    1027,    2678,    2679,    2699,    2698,    1270,    1271,    1291,    1290,    8351,    8350,    8310,    8352,    7717,    7757,    7758,    7755,    8719,    8718,    8698,    8699
    1028,    2677,    2678,    2698,    2697,    1269,    1270,    1290,    1289,    8353,    8352,    8312,    8354,    7715,    7755,    7756,    7753,    8720,    8719,    8699,    8700
    1029,    2559,    2677,    2697,    2558,    1162,    1269,    1289,    1163,    8355,    8354,    8314,    8050,    7713,    7753,    7754,    7500,    8062,    8720,    8700,    8063
    1030,    2676,    2572,    2571,    2696,    1268,    1149,    1150,    1288,    8356,    8026,    8315,    8357,    7711,    7486,    7752,    7750,    8721,    8036,    8037,    8701
    1031,    2675,    2676,    2696,    2695,    1267,    1268,    1288,    1287,    8358,    8357,    8317,    8359,    7710,    7750,    7751,    7748,    8722,    8721,    8701,    8702
    1032,    2674,    2675,    2695,    2694,    1266,    1267,    1287,    1286,    8360,    8359,    8319,    8361,    7708,    7748,    7749,    7746,    8723,    8722,    8702,    8703
    1033,    2673,    2674,    2694,    2693,    1265,    1266,    1286,    1285,    8362,    8361,    8321,    8363,    7706,    7746,    7747,    7744,    8724,    8723,    8703,    8704
    1034,    2672,    2673,    2693,    2692,    1264,    1265,    1285,    1284,    8364,    8363,    8323,    8365,    7704,    7744,    7745,    7742,    8725,    8724,    8704,    8705
    1035,    2671,    2672,    2692,    2691,    1263,    1264,    1284,    1283,    8366,    8365,    8325,    8367,    7702,    7742,    7743,    7740,    8726,    8725,    8705,    8706
    1036,    2670,    2671,    2691,    2690,    1262,    1263,    1283,    1282,    8368,    8367,    8327,    8369,    7700,    7740,    7741,    7738,    8727,    8726,    8706,    8707
    1037,    2669,    2670,    2690,    2689,    1261,    1262,    1282,    1281,    8370,    8369,    8329,    8371,    7698,    7738,    7739,    7736,    8728,    8727,    8707,    8708
    1038,    2668,    2669,    2689,    2688,    1260,    1261,    1281,    1280,    8372,    8371,    8331,    8373,    7696,    7736,    7737,    7734,    8729,    8728,    8708,    8709
    1039,    2667,    2668,    2688,    2687,    1259,    1260,    1280,    1279,    8374,    8373,    8333,    8375,    7694,    7734,    7735,    7732,    8730,    8729,    8709,    8710
    1040,    2666,    2667,    2687,    2686,    1258,    1259,    1279,    1278,    8376,    8375,    8335,    8377,    7692,    7732,    7733,    7730,    8731,    8730,    8710,    8711
    1041,    2665,    2666,    2686,    2685,    1257,    1258,    1278,    1277,    8378,    8377,    8337,    8379,    7690,    7730,    7731,    7728,    8732,    8731,    8711,    8712
    1042,    2664,    2665,    2685,    2684,    1256,    1257,    1277,    1276,    8380,    8379,    8339,    8381,    7688,    7728,    7729,    7726,    8733,    8732,    8712,    8713
    1043,    2663,    2664,    2684,    2683,    1255,    1256,    1276,    1275,    8382,    8381,    8341,    8383,    7686,    7726,    7727,    7724,    8734,    8733,    8713,    8714
    1044,    2662,    2663,    2683,    2682,    1254,    1255,    1275,    1274,    8384,    8383,    8343,    8385,    7684,    7724,    7725,    7722,    8735,    8734,    8714,    8715
    1045,    2661,    2662,    2682,    2681,    1253,    1254,    1274,    1273,    8386,    8385,    8345,    8387,    7682,    7722,    7723,    7720,    8736,    8735,    8715,    8716
    1046,    2660,    2661,    2681,    2680,    1252,    1253,    1273,    1272,    8388,    8387,    8347,    8389,    7680,    7720,    7721,    7718,    8737,    8736,    8716,    8717
    1047,    2659,    2660,    2680,    2679,    1251,    1252,    1272,    1271,    8390,    8389,    8349,    8391,    7678,    7718,    7719,    7716,    8738,    8737,    8717,    8718
    1048,    2658,    2659,    2679,    2678,    1250,    1251,    1271,    1270,    8392,    8391,    8351,    8393,    7676,    7716,    7717,    7714,    8739,    8738,    8718,    8719
    1049,    2657,    2658,    2678,    2677,    1249,    1250,    1270,    1269,    8394,    8393,    8353,    8395,    7674,    7714,    7715,    7712,    8740,    8739,    8719,    8720
    1050,    2560,    2657,    2677,    2559,    1161,    1249,    1269,    1162,    8396,    8395,    8355,    8051,    7672,    7712,    7713,    7499,    8061,    8740,    8720,    8062
    1051,    2656,    2573,    2572,    2676,    1248,    1148,    1149,    1268,    8397,    8027,    8356,    8398,    7670,    7485,    7711,    7709,    8741,    8035,    8036,    8721
    1052,    2655,    2656,    2676,    2675,    1247,    1248,    1268,    1267,    8399,    8398,    8358,    8400,    7669,    7709,    7710,    7707,    8742,    8741,    8721,    8722
    1053,    2654,    2655,    2675,    2674,    1246,    1247,    1267,    1266,    8401,    8400,    8360,    8402,    7667,    7707,    7708,    7705,    8743,    8742,    8722,    8723
    1054,    2653,    2654,    2674,    2673,    1245,    1246,    1266,    1265,    8403,    8402,    8362,    8404,    7665,    7705,    7706,    7703,    8744,    8743,    8723,    8724
    1055,    2652,    2653,    2673,    2672,    1244,    1245,    1265,    1264,    8405,    8404,    8364,    8406,    7663,    7703,    7704,    7701,    8745,    8744,    8724,    8725
    1056,    2651,    2652,    2672,    2671,    1243,    1244,    1264,    1263,    8407,    8406,    8366,    8408,    7661,    7701,    7702,    7699,    8746,    8745,    8725,    8726
    1057,    2650,    2651,    2671,    2670,    1242,    1243,    1263,    1262,    8409,    8408,    8368,    8410,    7659,    7699,    7700,    7697,    8747,    8746,    8726,    8727
    1058,    2649,    2650,    2670,    2669,    1241,    1242,    1262,    1261,    8411,    8410,    8370,    8412,    7657,    7697,    7698,    7695,    8748,    8747,    8727,    8728
    1059,    2648,    2649,    2669,    2668,    1240,    1241,    1261,    1260,    8413,    8412,    8372,    8414,    7655,    7695,    7696,    7693,    8749,    8748,    8728,    8729
    1060,    2647,    2648,    2668,    2667,    1239,    1240,    1260,    1259,    8415,    8414,    8374,    8416,    7653,    7693,    7694,    7691,    8750,    8749,    8729,    8730
    1061,    2646,    2647,    2667,    2666,    1238,    1239,    1259,    1258,    8417,    8416,    8376,    8418,    7651,    7691,    7692,    7689,    8751,    8750,    8730,    8731
    1062,    2645,    2646,    2666,    2665,    1237,    1238,    1258,    1257,    8419,    8418,    8378,    8420,    7649,    7689,    7690,    7687,    8752,    8751,    8731,    8732
    1063,    2644,    2645,    2665,    2664,    1236,    1237,    1257,    1256,    8421,    8420,    8380,    8422,    7647,    7687,    7688,    7685,    8753,    8752,    8732,    8733
    1064,    2643,    2644,    2664,    2663,    1235,    1236,    1256,    1255,    8423,    8422,    8382,    8424,    7645,    7685,    7686,    7683,    8754,    8753,    8733,    8734
    1065,    2642,    2643,    2663,    2662,    1234,    1235,    1255,    1254,    8425,    8424,    8384,    8426,    7643,    7683,    7684,    7681,    8755,    8754,    8734,    8735
    1066,    2641,    2642,    2662,    2661,    1233,    1234,    1254,    1253,    8427,    8426,    8386,    8428,    7641,    7681,    7682,    7679,    8756,    8755,    8735,    8736
    1067,    2640,    2641,    2661,    2660,    1232,    1233,    1253,    1252,    8429,    8428,    8388,    8430,    7639,    7679,    7680,    7677,    8757,    8756,    8736,    8737
    1068,    2639,    2640,    2660,    2659,    1231,    1232,    1252,    1251,    8431,    8430,    8390,    8432,    7637,    7677,    7678,    7675,    8758,    8757,    8737,    8738
    1069,    2638,    2639,    2659,    2658,    1230,    1231,    1251,    1250,    8433,    8432,    8392,    8434,    7635,    7675,    7676,    7673,    8759,    8758,    8738,    8739
    1070,    2637,    2638,    2658,    2657,    1229,    1230,    1250,    1249,    8435,    8434,    8394,    8436,    7633,    7673,    7674,    7671,    8760,    8759,    8739,    8740
    1071,    2561,    2637,    2657,    2560,    1160,    1229,    1249,    1161,    8437,    8436,    8396,    8052,    7631,    7671,    7672,    7498,    8060,    8760,    8740,    8061
    1072,    2636,    2574,    2573,    2656,    1228,    1147,    1148,    1248,    8438,    8028,    8397,    8439,    7629,    7484,    7670,    7668,    8761,    8034,    8035,    8741
    1073,    2635,    2636,    2656,    2655,    1227,    1228,    1248,    1247,    8440,    8439,    8399,    8441,    7628,    7668,    7669,    7666,    8762,    8761,    8741,    8742
    1074,    2634,    2635,    2655,    2654,    1226,    1227,    1247,    1246,    8442,    8441,    8401,    8443,    7626,    7666,    7667,    7664,    8763,    8762,    8742,    8743
    1075,    2633,    2634,    2654,    2653,    1225,    1226,    1246,    1245,    8444,    8443,    8403,    8445,    7624,    7664,    7665,    7662,    8764,    8763,    8743,    8744
    1076,    2632,    2633,    2653,    2652,    1224,    1225,    1245,    1244,    8446,    8445,    8405,    8447,    7622,    7662,    7663,    7660,    8765,    8764,    8744,    8745
    1077,    2631,    2632,    2652,    2651,    1223,    1224,    1244,    1243,    8448,    8447,    8407,    8449,    7620,    7660,    7661,    7658,    8766,    8765,    8745,    8746
    1078,    2630,    2631,    2651,    2650,    1222,    1223,    1243,    1242,    8450,    8449,    8409,    8451,    7618,    7658,    7659,    7656,    8767,    8766,    8746,    8747
    1079,    2629,    2630,    2650,    2649,    1221,    1222,    1242,    1241,    8452,    8451,    8411,    8453,    7616,    7656,    7657,    7654,    8768,    8767,    8747,    8748
    1080,    2628,    2629,    2649,    2648,    1220,    1221,    1241,    1240,    8454,    8453,    8413,    8455,    7614,    7654,    7655,    7652,    8769,    8768,    8748,    8749
    1081,    2627,    2628,    2648,    2647,    1219,    1220,    1240,    1239,    8456,    8455,    8415,    8457,    7612,    7652,    7653,    7650,    8770,    8769,    8749,    8750
    1082,    2626,    2627,    2647,    2646,    1218,    1219,    1239,    1238,    8458,    8457,    8417,    8459,    7610,    7650,    7651,    7648,    8771,    8770,    8750,    8751
    1083,    2625,    2626,    2646,    2645,    1217,    1218,    1238,    1237,    8460,    8459,    8419,    8461,    7608,    7648,    7649,    7646,    8772,    8771,    8751,    8752
    1084,    2624,    2625,    2645,    2644,    1216,    1217,    1237,    1236,    8462,    8461,    8421,    8463,    7606,    7646,    7647,    7644,    8773,    8772,    8752,    8753
    1085,    2623,    2624,    2644,    2643,    1215,    1216,    1236,    1235,    8464,    8463,    8423,    8465,    7604,    7644,    7645,    7642,    8774,    8773,    8753,    8754
    1086,    2622,    2623,    2643,    2642,    1214,    1215,    1235,    1234,    8466,    8465,    8425,    8467,    7602,    7642,    7643,    7640,    8775,    8774,    8754,    8755
    1087,    2621,    2622,    2642,    2641,    1213,    1214,    1234,    1233,    8468,    8467,    8427,    8469,    7600,    7640,    7641,    7638,    8776,    8775,    8755,    8756
    1088,    2620,    2621,    2641,    2640,    1212,    1213,    1233,    1232,    8470,    8469,    8429,    8471,    7598,    7638,    7639,    7636,    8777,    8776,    8756,    8757
    1089,    2619,    2620,    2640,    2639,    1211,    1212,    1232,    1231,    8472,    8471,    8431,    8473,    7596,    7636,    7637,    7634,    8778,    8777,    8757,    8758
    1090,    2618,    2619,    2639,    2638,    1210,    1211,    1231,    1230,    8474,    8473,    8433,    8475,    7594,    7634,    7635,    7632,    8779,    8778,    8758,    8759
    1091,    2617,    2618,    2638,    2637,    1209,    1210,    1230,    1229,    8476,    8475,    8435,    8477,    7592,    7632,    7633,    7630,    8780,    8779,    8759,    8760
    1092,    2562,    2617,    2637,    2561,    1159,    1209,    1229,    1160,    8478,    8477,    8437,    8053,    7590,    7630,    7631,    7497,    8059,    8780,    8760,    8060
    1093,    2616,    2575,    2574,    2636,    1208,    1146,    1147,    1228,    8479,    8029,    8438,    8480,    7588,    7483,    7629,    7627,    8781,    8033,    8034,    8761
    1094,    2615,    2616,    2636,    2635,    1207,    1208,    1228,    1227,    8481,    8480,    8440,    8482,    7587,    7627,    7628,    7625,    8782,    8781,    8761,    8762
    1095,    2614,    2615,    2635,    2634,    1206,    1207,    1227,    1226,    8483,    8482,    8442,    8484,    7585,    7625,    7626,    7623,    8783,    8782,    8762,    8763
    1096,    2613,    2614,    2634,    2633,    1205,    1206,    1226,    1225,    8485,    8484,    8444,    8486,    7583,    7623,    7624,    7621,    8784,    8783,    8763,    8764
    1097,    2612,    2613,    2633,    2632,    1204,    1205,    1225,    1224,    8487,    8486,    8446,    8488,    7581,    7621,    7622,    7619,    8785,    8784,    8764,    8765
    1098,    2611,    2612,    2632,    2631,    1203,    1204,    1224,    1223,    8489,    8488,    8448,    8490,    7579,    7619,    7620,    7617,    8786,    8785,    8765,    8766
    1099,    2610,    2611,    2631,    2630,    1202,    1203,    1223,    1222,    8491,    8490,    8450,    8492,    7577,    7617,    7618,    7615,    8787,    8786,    8766,    8767
    1100,    2609,    2610,    2630,    2629,    1201,    1202,    1222,    1221,    8493,    8492,    8452,    8494,    7575,    7615,    7616,    7613,    8788,    8787,    8767,    8768
    1101,    2608,    2609,    2629,    2628,    1200,    1201,    1221,    1220,    8495,    8494,    8454,    8496,    7573,    7613,    7614,    7611,    8789,    8788,    8768,    8769
    1102,    2607,    2608,    2628,    2627,    1199,    1200,    1220,    1219,    8497,    8496,    8456,    8498,    7571,    7611,    7612,    7609,    8790,    8789,    8769,    8770
    1103,    2606,    2607,    2627,    2626,    1198,    1199,    1219,    1218,    8499,    8498,    8458,    8500,    7569,    7609,    7610,    7607,    8791,    8790,    8770,    8771
    1104,    2605,    2606,    2626,    2625,    1197,    1198,    1218,    1217,    8501,    8500,    8460,    8502,    7567,    7607,    7608,    7605,    8792,    8791,    8771,    8772
    1105,    2604,    2605,    2625,    2624,    1196,    1197,    1217,    1216,    8503,    8502,    8462,    8504,    7565,    7605,    7606,    7603,    8793,    8792,    8772,    8773
    1106,    2603,    2604,    2624,    2623,    1195,    1196,    1216,    1215,    8505,    8504,    8464,    8506,    7563,    7603,    7604,    7601,    8794,    8793,    8773,    8774
    1107,    2602,    2603,    2623,    2622,    1194,    1195,    1215,    1214,    8507,    8506,    8466,    8508,    7561,    7601,    7602,    7599,    8795,    8794,    8774,    8775
    1108,    2601,    2602,    2622,    2621,    1193,    1194,    1214,    1213,    8509,    8508,    8468,    8510,    7559,    7599,    7600,    7597,    8796,    8795,    8775,    8776
    1109,    2600,    2601,    2621,    2620,    1192,    1193,    1213,    1212,    8511,    8510,    8470,    8512,    7557,    7597,    7598,    7595,    8797,    8796,    8776,    8777
    1110,    2599,    2600,    2620,    2619,    1191,    1192,    1212,    1211,    8513,    8512,    8472,    8514,    7555,    7595,    7596,    7593,    8798,    8797,    8777,    8778
    1111,    2598,    2599,    2619,    2618,    1190,    1191,    1211,    1210,    8515,    8514,    8474,    8516,    7553,    7593,    7594,    7591,    8799,    8798,    8778,    8779
    1112,    2597,    2598,    2618,    2617,    1189,    1190,    1210,    1209,    8517,    8516,    8476,    8518,    7551,    7591,    7592,    7589,    8800,    8799,    8779,    8780
    1113,    2563,    2597,    2617,    2562,    1158,    1189,    1209,    1159,    8519,    8518,    8478,    8054,    7549,    7589,    7590,    7496,    8058,    8800,    8780,    8059
    1114,    2596,    2576,    2575,    2616,    1188,    1145,    1146,    1208,    8520,    8030,    8479,    8521,    7547,    7482,    7588,    7586,    8801,    8032,    8033,    8781
    1115,    2595,    2596,    2616,    2615,    1187,    1188,    1208,    1207,    8522,    8521,    8481,    8523,    7546,    7586,    7587,    7584,    8802,    8801,    8781,    8782
    1116,    2594,    2595,    2615,    2614,    1186,    1187,    1207,    1206,    8524,    8523,    8483,    8525,    7544,    7584,    7585,    7582,    8803,    8802,    8782,    8783
    1117,    2593,    2594,    2614,    2613,    1185,    1186,    1206,    1205,    8526,    8525,    8485,    8527,    7542,    7582,    7583,    7580,    8804,    8803,    8783,    8784
    1118,    2592,    2593,    2613,    2612,    1184,    1185,    1205,    1204,    8528,    8527,    8487,    8529,    7540,    7580,    7581,    7578,    8805,    8804,    8784,    8785
    1119,    2591,    2592,    2612,    2611,    1183,    1184,    1204,    1203,    8530,    8529,    8489,    8531,    7538,    7578,    7579,    7576,    8806,    8805,    8785,    8786
    1120,    2590,    2591,    2611,    2610,    1182,    1183,    1203,    1202,    8532,    8531,    8491,    8533,    7536,    7576,    7577,    7574,    8807,    8806,    8786,    8787
    1121,    2589,    2590,    2610,    2609,    1181,    1182,    1202,    1201,    8534,    8533,    8493,    8535,    7534,    7574,    7575,    7572,    8808,    8807,    8787,    8788
    1122,    2588,    2589,    2609,    2608,    1180,    1181,    1201,    1200,    8536,    8535,    8495,    8537,    7532,    7572,    7573,    7570,    8809,    8808,    8788,    8789
    1123,    2587,    2588,    2608,    2607,    1179,    1180,    1200,    1199,    8538,    8537,    8497,    8539,    7530,    7570,    7571,    7568,    8810,    8809,    8789,    8790
    1124,    2586,    2587,    2607,    2606,    1178,    1179,    1199,    1198,    8540,    8539,    8499,    8541,    7528,    7568,    7569,    7566,    8811,    8810,    8790,    8791
    1125,    2585,    2586,    2606,    2605,    1177,    1178,    1198,    1197,    8542,    8541,    8501,    8543,    7526,    7566,    7567,    7564,    8812,    8811,    8791,    8792
    1126,    2584,    2585,    2605,    2604,    1176,    1177,    1197,    1196,    8544,    8543,    8503,    8545,    7524,    7564,    7565,    7562,    8813,    8812,    8792,    8793
    1127,    2583,    2584,    2604,    2603,    1175,    1176,    1196,    1195,    8546,    8545,    8505,    8547,    7522,    7562,    7563,    7560,    8814,    8813,    8793,    8794
    1128,    2582,    2583,    2603,    2602,    1174,    1175,    1195,    1194,    8548,    8547,    8507,    8549,    7520,    7560,    7561,    7558,    8815,    8814,    8794,    8795
    1129,    2581,    2582,    2602,    2601,    1173,    1174,    1194,    1193,    8550,    8549,    8509,    8551,    7518,    7558,    7559,    7556,    8816,    8815,    8795,    8796
    1130,    2580,    2581,    2601,    2600,    1172,    1173,    1193,    1192,    8552,    8551,    8511,    8553,    7516,    7556,    7557,    7554,    8817,    8816,    8796,    8797
    1131,    2579,    2580,    2600,    2599,    1171,    1172,    1192,    1191,    8554,    8553,    8513,    8555,    7514,    7554,    7555,    7552,    8818,    8817,    8797,    8798
    1132,    2578,    2579,    2599,    2598,    1170,    1171,    1191,    1190,    8556,    8555,    8515,    8557,    7512,    7552,    7553,    7550,    8819,    8818,    8798,    8799
    1133,    2577,    2578,    2598,    2597,    1169,    1170,    1190,    1189,    8558,    8557,    8517,    8559,    7510,    7550,    7551,    7548,    8820,    8819,    8799,    8800
    1134,    2564,    2577,    2597,    2563,    1157,    1169,    1189,    1158,    8560,    8559,    8519,    8055,    7508,    7548,    7549,    7495,    8057,    8820,    8800,    8058
    1135,    1466,    1409,    2576,    2596,     949,     947,    1145,    1188,    7438,    8031,    8520,    8561,    7440,    7481,    7547,    7545,    7461,    7417,    8032,    8801
    1136,    1465,    1466,    2596,    2595,     950,     949,    1188,    1187,    7437,    8561,    8522,    8562,    7441,    7545,    7546,    7543,    7462,    7461,    8801,    8802
    1137,    1464,    1465,    2595,    2594,     951,     950,    1187,    1186,    7436,    8562,    8524,    8563,    7442,    7543,    7544,    7541,    7463,    7462,    8802,    8803
    1138,    1463,    1464,    2594,    2593,     952,     951,    1186,    1185,    7435,    8563,    8526,    8564,    7443,    7541,    7542,    7539,    7464,    7463,    8803,    8804
    1139,    1462,    1463,    2593,    2592,     953,     952,    1185,    1184,    7434,    8564,    8528,    8565,    7444,    7539,    7540,    7537,    7465,    7464,    8804,    8805
    1140,    1461,    1462,    2592,    2591,     954,     953,    1184,    1183,    7433,    8565,    8530,    8566,    7445,    7537,    7538,    7535,    7466,    7465,    8805,    8806
    1141,    1460,    1461,    2591,    2590,     955,     954,    1183,    1182,    7432,    8566,    8532,    8567,    7446,    7535,    7536,    7533,    7467,    7466,    8806,    8807
    1142,    1459,    1460,    2590,    2589,     956,     955,    1182,    1181,    7431,    8567,    8534,    8568,    7447,    7533,    7534,    7531,    7468,    7467,    8807,    8808
    1143,    1458,    1459,    2589,    2588,     957,     956,    1181,    1180,    7430,    8568,    8536,    8569,    7448,    7531,    7532,    7529,    7469,    7468,    8808,    8809
    1144,    1457,    1458,    2588,    2587,     958,     957,    1180,    1179,    7429,    8569,    8538,    8570,    7449,    7529,    7530,    7527,    7470,    7469,    8809,    8810
    1145,    1456,    1457,    2587,    2586,     959,     958,    1179,    1178,    7428,    8570,    8540,    8571,    7450,    7527,    7528,    7525,    7471,    7470,    8810,    8811
    1146,    1455,    1456,    2586,    2585,     960,     959,    1178,    1177,    7427,    8571,    8542,    8572,    7451,    7525,    7526,    7523,    7472,    7471,    8811,    8812
    1147,    1454,    1455,    2585,    2584,     961,     960,    1177,    1176,    7426,    8572,    8544,    8573,    7452,    7523,    7524,    7521,    7473,    7472,    8812,    8813
    1148,    1453,    1454,    2584,    2583,     962,     961,    1176,    1175,    7425,    8573,    8546,    8574,    7453,    7521,    7522,    7519,    7474,    7473,    8813,    8814
    1149,    1452,    1453,    2583,    2582,     963,     962,    1175,    1174,    7424,    8574,    8548,    8575,    7454,    7519,    7520,    7517,    7475,    7474,    8814,    8815
    1150,    1451,    1452,    2582,    2581,     964,     963,    1174,    1173,    7423,    8575,    8550,    8576,    7455,    7517,    7518,    7515,    7476,    7475,    8815,    8816
    1151,    1450,    1451,    2581,    2580,     965,     964,    1173,    1172,    7422,    8576,    8552,    8577,    7456,    7515,    7516,    7513,    7477,    7476,    8816,    8817
    1152,    1449,    1450,    2580,    2579,     966,     965,    1172,    1171,    7421,    8577,    8554,    8578,    7457,    7513,    7514,    7511,    7478,    7477,    8817,    8818
    1153,    1448,    1449,    2579,    2578,     967,     966,    1171,    1170,    7420,    8578,    8556,    8579,    7458,    7511,    7512,    7509,    7479,    7478,    8818,    8819
    1154,    1447,    1448,    2578,    2577,     968,     967,    1170,    1169,    7419,    8579,    8558,    8580,    7459,    7509,    7510,    7507,    7480,    7479,    8819,    8820
    1155,    1439,    1447,    2577,    2564,     948,     968,    1169,    1157,    7418,    8580,    8560,    8056,    7460,    7507,    7508,    7494,    7439,    7480,    8820,    8057
*ELEMENT, TYPE=C3D20R, ELSET=reinforced_concrete
    1156,    1606,    1446,    1418,    1438,    1144,     970,     969,     978,    8874,    8828,    8873,    8875,    9504,    8830,    9197,    9524,    9545,    8844,    8829,    9525
    1157,    1605,    1606,    1438,    1437,    1143,    1144,     978,     979,    8876,    8875,    8872,    8877,    9503,    9524,    9198,    9523,    9546,    9545,    9525,    9526
    1158,    1604,    1605,    1437,    1436,    1142,    1143,     979,     980,    8878,    8877,    8871,    8879,    9501,    9523,    9199,    9522,    9547,    9546,    9526,    9527
    1159,    1603,    1604,    1436,    1435,    1141,    1142,     980,     981,    8880,    8879,    8870,    8881,    9499,    9522,    9200,    9521,    9548,    9547,    9527,    9528
    1160,    1602,    1603,    1435,    1434,    1140,    1141,     981,     982,    8882,    8881,    8869,    8883,    9497,    9521,    9201,    9520,    9549,    9548,    9528,    9529
    1161,    1601,    1602,    1434,    1433,    1139,    1140,     982,     983,    8884,    8883,    8868,    8885,    9495,    9520,    9202,    9519,    9550,    9549,    9529,    9530
    1162,    1600,    1601,    1433,    1432,    1138,    1139,     983,     984,    8886,    8885,    8867,    8887,    9493,    9519,    9203,    9518,    9551,    9550,    9530,    9531
    1163,    1599,    1600,    1432,    1431,    1137,    1138,     984,     985,    8888,    8887,    8866,    8889,    9491,    9518,    9204,    9517,    9552,    9551,    9531,    9532
    1164,    1598,    1599,    1431,    1430,    1136,    1137,     985,     986,    8890,    8889,    8865,    8891,    9489,    9517,    9205,    9516,    9553,    9552,    9532,    9533
    1165,    1597,    1598,    1430,    1429,    1135,    1136,     986,     987,    8892,    8891,    8864,    8893,    9487,    9516,    9206,    9515,    9554,    9553,    9533,    9534
    1166,    1596,    1597,    1429,    1428,    1134,    1135,     987,     988,    8894,    8893,    8863,    8895,    9485,    9515,    9207,    9514,    9555,    9554,    9534,    9535
    1167,    1595,    1596,    1428,    1427,    1133,    1134,     988,     989,    8896,    8895,    8862,    8897,    9483,    9514,    9208,    9513,    9556,    9555,    9535,    9536
    1168,    1594,    1595,    1427,    1426,    1132,    1133,     989,     990,    8898,    8897,    8861,    8899,    9481,    9513,    9209,    9512,    9557,    9556,    9536,    9537
    1169,    1593,    1594,    1426,    1425,    1131,    1132,     990,     991,    8900,    8899,    8860,    8901,    9479,    9512,    9210,    9511,    9558,    9557,    9537,    9538
    1170,    1592,    1593,    1425,    1424,    1130,    1131,     991,     992,    8902,    8901,    8859,    8903,    9477,    9511,    9211,    9510,    9559,    9558,    9538,    9539
    1171,    1591,    1592,    1424,    1423,    1129,    1130,     992,     993,    8904,    8903,    8858,    8905,    9475,    9510,    9212,    9509,    9560,    9559,    9539,    9540
    1172,    1590,    1591,    1423,    1422,    1128,    1129,     993,     994,    8906,    8905,    8857,    8907,    9473,    9509,    9213,    9508,    9561,    9560,    9540,    9541
    1173,    1589,    1590,    1422,    1421,    1127,    1128,     994,     995,    8908,    8907,    8856,    8909,    9471,    9508,    9214,    9507,    9562,    9561,    9541,    9542
    1174,    1588,    1589,    1421,    1420,    1126,    1127,     995,     996,    8910,    8909,    8855,    8911,    9469,    9507,    9215,    9506,    9563,    9562,    9542,    9543
    1175,    1587,    1588,    1420,    1419,    1125,    1126,     996,     997,    8912,    8911,    8854,    8913,    9467,    9506,    9216,    9505,    9564,    9563,    9543,    9544
    1176,    1417,    1587,    1419,    1410,     998,    1125,     997,     977,    8914,    8913,    8853,    8852,    9465,    9505,    9217,    9181,    9196,    9564,    9544,    9189
    1177,    1586,    1445,    1446,    1606,    1124,     971,     970,    1144,    8915,    8827,    8874,    8916,    9463,    8831,    9504,    9502,    9565,    8843,    8844,    9545
    1178,    1585,    1586,    1606,    1605,    1123,    1124,    1144,    1143,    8917,    8916,    8876,    8918,    9462,    9502,    9503,    9500,    9566,    9565,    9545,    9546
    1179,    1584,    1585,    1605,    1604,    1122,    1123,    1143,    1142,    8919,    8918,    8878,    8920,    9460,    9500,    9501,    9498,    9567,    9566,    9546,    9547
    1180,    1583,    1584,    1604,    1603,    1121,    1122,    1142,    1141,    8921,    8920,    8880,    8922,    9458,    9498,    9499,    9496,    9568,    9567,    9547,    9548
    1181,    1582,    1583,    1603,    1602,    1120,    1121,    1141,    1140,    8923,    8922,    8882,    8924,    9456,    9496,    9497,    9494,    9569,    9568,    9548,    9549
    1182,    1581,    1582,    1602,    1601,    1119,    1120,    1140,    1139,    8925,    8924,    8884,    8926,    9454,    9494,    9495,    9492,    9570,    9569,    9549,    9550
    1183,    1580,    1581,    1601,    1600,    1118,    1119,    1139,    1138,    8927,    8926,    8886,    8928,    9452,    9492,    9493,    9490,    9571,    9570,    9550,    9551
    1184,    1579,    1580,    1600,    1599,    1117,    1118,    1138,    1137,    8929,    8928,    8888,    8930,    9450,    9490,    9491,    9488,    9572,    9571,    9551,    9552
    1185,    1578,    1579,    1599,    1598,    1116,    1117,    1137,    1136,    8931,    8930,    8890,    8932,    9448,    9488,    9489,    9486,    9573,    9572,    9552,    9553
    1186,    1577,    1578,    1598,    1597,    1115,    1116,    1136,    1135,    8933,    8932,    8892,    8934,    9446,    9486,    9487,    9484,    9574,    9573,    9553,    9554
    1187,    1576,    1577,    1597,    1596,    1114,    1115,    1135,    1134,    8935,    8934,    8894,    8936,    9444,    9484,    9485,    9482,    9575,    9574,    9554,    9555
    1188,    1575,    1576,    1596,    1595,    1113,    1114,    1134,    1133,    8937,    8936,    8896,    8938,    9442,    9482,    9483,    9480,    9576,    9575,    9555,    9556
    1189,    1574,    1575,    1595,    1594,    1112,    1113,    1133,    1132,    8939,    8938,    8898,    8940,    9440,    9480,    9481,    9478,    9577,    9576,    9556,    9557
    1190,    1573,    1574,    1594,    1593,    1111,    1112,    1132,    1131,    8941,    8940,    8900,    8942,    9438,    9478,    9479,    9476,    9578,    9577,    9557,    9558
    1191,    1572,    1573,    1593,    1592,    1110,    1111,    1131,    1130,    8943,    8942,    8902,    8944,    9436,    9476,    9477,    9474,    9579,    9578,    9558,    9559
    1192,    1571,    1572,    1592,    1591,    1109,    1110,    1130,    1129,    8945,    8944,    8904,    8946,    9434,    9474,    9475,    9472,    9580,    9579,    9559,    9560
    1193,    1570,    1571,    1591,    1590,    1108,    1109,    1129,    1128,    8947,    8946,    8906,    8948,    9432,    9472,    9473,    9470,    9581,    9580,    9560,    9561
    1194,    1569,    1570,    1590,    1589,    1107,    1108,    1128,    1127,    8949,    8948,    8908,    8950,    9430,    9470,    9471,    9468,    9582,    9581,    9561,    9562
    1195,    1568,    1569,    1589,    1588,    1106,    1107,    1127,    1126,    8951,    8950,    8910,    8952,    9428,    9468,    9469,    9466,    9583,    9582,    9562,    9563
    1196,    1567,    1568,    1588,    1587,    1105,    1106,    1126,    1125,    8953,    8952,    8912,    8954,    9426,    9466,    9467,    9464,    9584,    9583,    9563,    9564
    1197,    1416,    1567,    1587,    1417,     999,    1105,    1125,     998,    8955,    8954,    8914,    8851,    9424,    9464,    9465,    9182,    9195,    9584,    9564,    9196
    1198,    1566,    1444,    1445,    1586,    1104,     972,     971,    1124,    8956,    8826,    8915,    8957,    9422,    8832,    9463,    9461,    9585,    8842,    8843,    9565
    1199,    1565,    1566,    1586,    1585,    1103,    1104,    1124,    1123,    8958,    8957,    8917,    8959,    9421,    9461,    9462,    9459,    9586,    9585,    9565,    9566
    1200,    1564,    1565,    1585,    1584,    1102,    1103,    1123,    1122,    8960,    8959,    8919,    8961,    9419,    9459,    9460,    9457,    9587,    9586,    9566,    9567
    1201,    1563,    1564,    1584,    1583,    1101,    1102,    1122,    1121,    8962,    8961,    8921,    8963,    9417,    9457,    9458,    9455,    9588,    9587,    9567,    9568
    1202,    1562,    1563,    1583,    1582,    1100,    1101,    1121,    1120,    8964,    8963,    8923,    8965,    9415,    9455,    9456,    9453,    9589,    9588,    9568,    9569
    1203,    1561,    1562,    1582,    1581,    1099,    1100,    1120,    1119,    8966,    8965,    8925,    8967,    9413,    9453,    9454,    9451,    9590,    9589,    9569,    9570
    1204,    1560,    1561,    1581,    1580,    1098,    1099,    1119,    1118,    8968,    8967,    8927,    8969,    9411,    9451,    9452,    9449,    9591,    9590,    9570,    9571
    1205,    1559,    1560,    1580,    1579,    1097,    1098,    1118,    1117,    8970,    8969,    8929,    8971,    9409,    9449,    9450,    9447,    9592,    9591,    9571,    9572
    1206,    1558,    1559,    1579,    1578,    1096,    1097,    1117,    1116,    8972,    8971,    8931,    8973,    9407,    9447,    9448,    9445,    9593,    9592,    9572,    9573
    1207,    1557,    1558,    1578,    1577,    1095,    1096,    1116,    1115,    8974,    8973,    8933,    8975,    9405,    9445,    9446,    9443,    9594,    9593,    9573,    9574
    1208,    1556,    1557,    1577,    1576,    1094,    1095,    1115,    1114,    8976,    8975,    8935,    8977,    9403,    9443,    9444,    9441,    9595,    9594,    9574,    9575
    1209,    1555,    1556,    1576,    1575,    1093,    1094,    1114,    1113,    8978,    8977,    8937,    8979,    9401,    9441,    9442,    9439,    9596,    9595,    9575,    9576
    1210,    1554,    1555,    1575,    1574,    1092,    1093,    1113,    1112,    8980,    8979,    8939,    8981,    9399,    9439,    9440,    9437,    9597,    9596,    9576,    9577
    1211,    1553,    1554,    1574,    1573,    1091,    1092,    1112,    1111,    8982,    8981,    8941,    8983,    9397,    9437,    9438,    9435,    9598,    9597,    9577,    9578
    1212,    1552,    1553,    1573,    1572,    1090,    1091,    1111,    1110,    8984,    8983,    8943,    8985,    9395,    9435,    9436,    9433,    9599,    9598,    9578,    9579
    1213,    1551,    1552,    1572,    1571,    1089,    1090,    1110,    1109,    8986,    8985,    8945,    8987,    9393,    9433,    9434,    9431,    9600,    9599,    9579,    9580
    1214,    1550,    1551,    1571,    1570,    1088,    1089,    1109,    1108,    8988,    8987,    8947,    8989,    9391,    9431,    9432,    9429,    9601,    9600,    9580,    9581
    1215,    1549,    1550,    1570,    1569,    1087,    1088,    1108,    1107,    8990,    8989,    8949,    8991,    9389,    9429,    9430,    9427,    9602,    9601,    9581,    9582
    1216,    1548,    1549,    1569,    1568,    1086,    1087,    1107,    1106,    8992,    8991,    8951,    8993,    9387,    9427,    9428,    9425,    9603,    9602,    9582,    9583
    1217,    1547,    1548,    1568,    1567,    1085,    1086,    1106,    1105,    8994,    8993,    8953,    8995,    9385,    9425,    9426,    9423,    9604,    9603,    9583,    9584
    1218,    1415,    1547,    1567,    1416,    1000,    1085,    1105,     999,    8996,    8995,    8955,    8850,    9383,    9423,    9424,    9183,    9194,    9604,    9584,    9195
    1219,    1546,    1443,    1444,    1566,    1084,     973,     972,    1104,    8997,    8825,    8956,    8998,    9381,    8833,    9422,    9420,    9605,    8841,    8842,    9585
    1220,    1545,    1546,    1566,    1565,    1083,    1084,    1104,    1103,    8999,    8998,    8958,    9000,    9380,    9420,    9421,    9418,    9606,    9605,    9585,    9586
    1221,    1544,    1545,    1565,    1564,    1082,    1083,    1103,    1102,    9001,    9000,    8960,    9002,    9378,    9418,    9419,    9416,    9607,    9606,    9586,    9587
    1222,    1543,    1544,    1564,    1563,    1081,    1082,    1102,    1101,    9003,    9002,    8962,    9004,    9376,    9416,    9417,    9414,    9608,    9607,    9587,    9588
    1223,    1542,    1543,    1563,    1562,    1080,    1081,    1101,    1100,    9005,    9004,    8964,    9006,    9374,    9414,    9415,    9412,    9609,    9608,    9588,    9589
    1224,    1541,    1542,    1562,    1561,    1079,    1080,    1100,    1099,    9007,    9006,    8966,    9008,    9372,    9412,    9413,    9410,    9610,    9609,    9589,    9590
    1225,    1540,    1541,    1561,    1560,    1078,    1079,    1099,    1098,    9009,    9008,    8968,    9010,    9370,    9410,    9411,    9408,    9611,    9610,    9590,    9591
    1226,    1539,    1540,    1560,    1559,    1077,    1078,    1098,    1097,    9011,    9010,    8970,    9012,    9368,    9408,    9409,    9406,    9612,    9611,    9591,    9592
    1227,    1538,    1539,    1559,    1558,    1076,    1077,    1097,    1096,    9013,    9012,    8972,    9014,    9366,    9406,    9407,    9404,    9613,    9612,    9592,    9593
    1228,    1537,    1538,    1558,    1557,    1075,    1076,    1096,    1095,    9015,    9014,    8974,    9016,    9364,    9404,    9405,    9402,    9614,    9613,    9593,    9594
    1229,    1536,    1537,    1557,    1556,    1074,    1075,    1095,    1094,    9017,    9016,    8976,    9018,    9362,    9402,    9403,    9400,    9615,    9614,    9594,    9595
    1230,    1535,    1536,    1556,    1555,    1073,    1074,    1094,    1093,    9019,    9018,    8978,    9020,    9360,    9400,    9401,    9398,    9616,    9615,    9595,    9596
    1231,    1534,    1535,    1555,    1554,    1072,    1073,    1093,    1092,    9021,    9020,    8980,    9022,    9358,    9398,    9399,    9396,    9617,    9616,    9596,    9597
    1232,    1533,    1534,    1554,    1553,    1071,    1072,    1092,    1091,    9023,    9022,    8982,    9024,    9356,    9396,    9397,    9394,    9618,    9617,    9597,    9598
    1233,    1532,    1533,    1553,    1552,    1070,    1071,    1091,    1090,    9025,    9024,    8984,    9026,    9354,    9394,    9395,    9392,    9619,    9618,    9598,    9599
    1234,    1531,    1532,    1552,    1551,    1069,    1070,    1090,    1089,    9027,    9026,    8986,    9028,    9352,    9392,    9393,    9390,    9620,    9619,    9599,    9600
    1235,    1530,    1531,    1551,    1550,    1068,    1069,    1089,    1088,    9029,    9028,    8988,    9030,    9350,    9390,    9391,    9388,    9621,    9620,    9600,    9601
    1236,    1529,    1530,    1550,    1549,    1067,    1068,    1088,    1087,    9031,    9030,    8990,    9032,    9348,    9388,    9389,    9386,    9622,    9621,    9601,    9602
    1237,    1528,    1529,    1549,    1548,    1066,    1067,    1087,    1086,    9033,    9032,    8992,    9034,    9346,    9386,    9387,    9384,    9623,    9622,    9602,    9603
    1238,    1527,    1528,    1548,    1547,    1065,    1066,    1086,    1085,    9035,    9034,    8994,    9036,    9344,    9384,    9385,    9382,    9624,    9623,    9603,    9604
    1239,    1414,    1527,    1547,    1415,    1001,    1065,    1085,    1000,    9037,    9036,    8996,    8849,    9342,    9382,    9383,    9184,    9193,    9624,    9604,    9194
    1240,    1526,    1442,    1443,    1546,    1064,     974,     973,    1084,    9038,    8824,    8997,    9039,    9340,    8834,    9381,    9379,    9625,    8840,    8841,    9605
    1241,    1525,    1526,    1546,    1545,    1063,    1064,    1084,    1083,    9040,    9039,    8999,    9041,    9339,    9379,    9380,    9377,    9626,    9625,    9605,    9606
    1242,    1524,    1525,    1545,    1544,    1062,    1063,    1083,    1082,    9042,    9041,    9001,    9043,    9337,    9377,    9378,    9375,    9627,    9626,    9606,    9607
    1243,    1523,    1524,    1544,    1543,    1061,    1062,    1082,    1081,    9044,    9043,    9003,    9045,    9335,    9375,    9376,    9373,    9628,    9627,    9607,    9608
    1244,    1522,    1523,    1543,    1542,    1060,    1061,    1081,    1080,    9046,    9045,    9005,    9047,    9333,    9373,    9374,    9371,    9629,    9628,    9608,    9609
    1245,    1521,    1522,    1542,    1541,    1059,    1060,    1080,    1079,    9048,    9047,    9007,    9049,    9331,    9371,    9372,    9369,    9630,    9629,    9609,    9610
    1246,    1520,    1521,    1541,    1540,    1058,    1059,    1079,    1078,    9050,    9049,    9009,    9051,    9329,    9369,    9370,    9367,    9631,    9630,    9610,    9611
    1247,    1519,    1520,    1540,    1539,    1057,    1058,    1078,    1077,    9052,    9051,    9011,    9053,    9327,    9367,    9368,    9365,    9632,    9631,    9611,    9612
    1248,    1518,    1519,    1539,    1538,    1056,    1057,    1077,    1076,    9054,    9053,    9013,    9055,    9325,    9365,    9366,    9363,    9633,    9632,    9612,    9613
    1249,    1517,    1518,    1538,    1537,    1055,    1056,    1076,    1075,    9056,    9055,    9015,    9057,    9323,    9363,    9364,    9361,    9634,    9633,    9613,    9614
    1250,    1516,    1517,    1537,    1536,    1054,    1055,    1075,    1074,    9058,    9057,    9017,    9059,    9321,    9361,    9362,    9359,    9635,    9634,    9614,    9615
    1251,    1515,    1516,    1536,    1535,    1053,    1054,    1074,    1073,    9060,    9059,    9019,    9061,    9319,    9359,    9360,    9357,    9636,    9635,    9615,    9616
    1252,    1514,    1515,    1535,    1534,    1052,    1053,    1073,    1072,    9062,    9061,    9021,    9063,    9317,    9357,    9358,    9355,    9637,    9636,    9616,    9617
    1253,    1513,    1514,    1534,    1533,    1051,    1052,    1072,    1071,    9064,    9063,    9023,    9065,    9315,    9355,    9356,    9353,    9638,    9637,    9617,    9618
    1254,    1512,    1513,    1533,    1532,    1050,    1051,    1071,    1070,    9066,    9065,    9025,    9067,    9313,    9353,    9354,    9351,    9639,    9638,    9618,    9619
    1255,    1511,    1512,    1532,    1531,    1049,    1050,    1070,    1069,    9068,    9067,    9027,    9069,    9311,    9351,    9352,    9349,    9640,    9639,    9619,    9620
    1256,    1510,    1511,    1531,    1530,    1048,    1049,    1069,    1068,    9070,    9069,    9029,    9071,    9309,    9349,    9350,    9347,    9641,    9640,    9620,    9621
    1257,    1509,    1510,    1530,    1529,    1047,    1048,    1068,    1067,    9072,    9071,    9031,    9073,    9307,    9347,    9348,    9345,    9642,    9641,    9621,    9622
    1258,    1508,    1509,    1529,    1528,    1046,    1047,    1067,    1066,    9074,    9073,    9033,    9075,    9305,    9345,    9346,    9343,    9643,    9642,    9622,    9623
    1259,    1507,    1508,    1528,    1527,    1045,    1046,    1066,    1065,    9076,    9075,    9035,    9077,    9303,    9343,    9344,    9341,    9644,    9643,    9623,    9624
    1260,    1413,    1507,    1527,    1414,    1002,    1045,    1065,    1001,    9078,    9077,    9037,    8848,    9301,    9341,    9342,    9185,    9192,    9644,    9624,    9193
    1261,    1506,    1441,    1442,    1526,    1044,     975,     974,    1064,    9079,    8823,    9038,    9080,    9299,    8835,    9340,    9338,    9645,    8839,    8840,    9625
    1262,    1505,    1506,    1526,    1525,    1043,    1044,    1064,    1063,    9081,    9080,    9040,    9082,    9298,    9338,    9339,    9336,    9646,    9645,    9625,    9626
    1263,    1504,    1505,    1525,    1524,    1042,    1043,    1063,    1062,    9083,    9082,    9042,    9084,    9296,    9336,    9337,    9334,    9647,    9646,    9626,    9627
    1264,    1503,    1504,    1524,    1523,    1041,    1042,    1062,    1061,    9085,    9084,    9044,    9086,    9294,    9334,    9335,    9332,    9648,    9647,    9627,    9628
    1265,    1502,    1503,    1523,    1522,    1040,    1041,    1061,    1060,    9087,    9086,    9046,    9088,    9292,    9332,    9333,    9330,    9649,    9648,    9628,    9629
    1266,    1501,    1502,    1522,    1521,    1039,    1040,    1060,    1059,    9089,    9088,    9048,    9090,    9290,    9330,    9331,    9328,    9650,    9649,    9629,    9630
    1267,    1500,    1501,    1521,    1520,    1038,    1039,    1059,    1058,    9091,    9090,    9050,    9092,    9288,    9328,    9329,    9326,    9651,    9650,    9630,    9631
    1268,    1499,    1500,    1520,    1519,    1037,    1038,    1058,    1057,    9093,    9092,    9052,    9094,    9286,    9326,    9327,    9324,    9652,    9651,    9631,    9632
    1269,    1498,    1499,    1519,    1518,    1036,    1037,    1057,    1056,    9095,    9094,    9054,    9096,    9284,    9324,    9325,    9322,    9653,    9652,    9632,    9633
    1270,    1497,    1498,    1518,    1517,    1035,    1036,    1056,    1055,    9097,    9096,    9056,    9098,    9282,    9322,    9323,    9320,    9654,    9653,    9633,    9634
    1271,    1496,    1497,    1517,    1516,    1034,    1035,    1055,    1054,    9099,    9098,    9058,    9100,    9280,    9320,    9321,    9318,    9655,    9654,    9634,    9635
    1272,    1495,    1496,    1516,    1515,    1033,    1034,    1054,    1053,    9101,    9100,    9060,    9102,    9278,    9318,    9319,    9316,    9656,    9655,    9635,    9636
    1273,    1494,    1495,    1515,    1514,    1032,    1033,    1053,    1052,    9103,    9102,    9062,    9104,    9276,    9316,    9317,    9314,    9657,    9656,    9636,    9637
    1274,    1493,    1494,    1514,    1513,    1031,    1032,    1052,    1051,    9105,    9104,    9064,    9106,    9274,    9314,    9315,    9312,    9658,    9657,    9637,    9638
    1275,    1492,    1493,    1513,    1512,    1030,    1031,    1051,    1050,    9107,    9106,    9066,    9108,    9272,    9312,    9313,    9310,    9659,    9658,    9638,    9639
    1276,    1491,    1492,    1512,    1511,    1029,    1030,    1050,    1049,    9109,    9108,    9068,    9110,    9270,    9310,    9311,    9308,    9660,    9659,    9639,    9640
    1277,    1490,    1491,    1511,    1510,    1028,    1029,    1049,    1048,    9111,    9110,    9070,    9112,    9268,    9308,    9309,    9306,    9661,    9660,    9640,    9641
    1278,    1489,    1490,    1510,    1509,    1027,    1028,    1048,    1047,    9113,    9112,    9072,    9114,    9266,    9306,    9307,    9304,    9662,    9661,    9641,    9642
    1279,    1488,    1489,    1509,    1508,    1026,    1027,    1047,    1046,    9115,    9114,    9074,    9116,    9264,    9304,    9305,    9302,    9663,    9662,    9642,    9643
    1280,    1487,    1488,    1508,    1507,    1025,    1026,    1046,    1045,    9117,    9116,    9076,    9118,    9262,    9302,    9303,    9300,    9664,    9663,    9643,    9644
    1281,    1412,    1487,    1507,    1413,    1003,    1025,    1045,    1002,    9119,    9118,    9078,    8847,    9260,    9300,    9301,    9186,    9191,    9664,    9644,    9192
    1282,    1486,    1440,    1441,    1506,    1024,     976,     975,    1044,    9120,    8822,    9079,    9121,    9258,    8836,    9299,    9297,    9665,    8838,    8839,    9645
    1283,    1485,    1486,    1506,    1505,    1023,    1024,    1044,    1043,    9122,    9121,    9081,    9123,    9257,    9297,    9298,    9295,    9666,    9665,    9645,    9646
    1284,    1484,    1485,    1505,    1504,    1022,    1023,    1043,    1042,    9124,    9123,    9083,    9125,    9255,    9295,    9296,    9293,    9667,    9666,    9646,    9647
    1285,    1483,    1484,    1504,    1503,    1021,    1022,    1042,    1041,    9126,    9125,    9085,    9127,    9253,    9293,    9294,    9291,    9668,    9667,    9647,    9648
    1286,    1482,    1483,    1503,    1502,    1020,    1021,    1041,    1040,    9128,    9127,    9087,    9129,    9251,    9291,    9292,    9289,    9669,    9668,    9648,    9649
    1287,    1481,    1482,    1502,    1501,    1019,    1020,    1040,    1039,    9130,    9129,    9089,    9131,    9249,    9289,    9290,    9287,    9670,    9669,    9649,    9650
    1288,    1480,    1481,    1501,    1500,    1018,    1019,    1039,    1038,    9132,    9131,    9091,    9133,    9247,    9287,    9288,    9285,    9671,    9670,    9650,    9651
    1289,    1479,    1480,    1500,    1499,    1017,    1018,    1038,    1037,    9134,    9133,    9093,    9135,    9245,    9285,    9286,    9283,    9672,    9671,    9651,    9652
    1290,    1478,    1479,    1499,    1498,    1016,    1017,    1037,    1036,    9136,    9135,    9095,    9137,    9243,    9283,    9284,    9281,    9673,    9672,    9652,    9653
    1291,    1477,    1478,    1498,    1497,    1015,    1016,    1036,    1035,    9138,    9137,    9097,    9139,    9241,    9281,    9282,    9279,    9674,    9673,    9653,    9654
    1292,    1476,    1477,    1497,    1496,    1014,    1015,    1035,    1034,    9140,    9139,    9099,    9141,    9239,    9279,    9280,    9277,    9675,    9674,    9654,    9655
    1293,    1475,    1476,    1496,    1495,    1013,    1014,    1034,    1033,    9142,    9141,    9101,    9143,    9237,    9277,    9278,    9275,    9676,    9675,    9655,    9656
    1294,    1474,    1475,    1495,    1494,    1012,    1013,    1033,    1032,    9144,    9143,    9103,    9145,    9235,    9275,    9276,    9273,    9677,    9676,    9656,    9657
    1295,    1473,    1474,    1494,    1493,    1011,    1012,    1032,    1031,    9146,    9145,    9105,    9147,    9233,    9273,    9274,    9271,    9678,    9677,    9657,    9658
    1296,    1472,    1473,    1493,    1492,    1010,    1011,    1031,    1030,    9148,    9147,    9107,    9149,    9231,    9271,    9272,    9269,    9679,    9678,    9658,    9659
    1297,    1471,    1472,    1492,    1491,    1009,    1010,    1030,    1029,    9150,    9149,    9109,    9151,    9229,    9269,    9270,    9267,    9680,    9679,    9659,    9660
    1298,    1470,    1471,    1491,    1490,    1008,    1009,    1029,    1028,    9152,    9151,    9111,    9153,    9227,    9267,    9268,    9265,    9681,    9680,    9660,    9661
    1299,    1469,    1470,    1490,    1489,    1007,    1008,    1028,    1027,    9154,    9153,    9113,    9155,    9225,    9265,    9266,    9263,    9682,    9681,    9661,    9662
    1300,    1468,    1469,    1489,    1488,    1006,    1007,    1027,    1026,    9156,    9155,    9115,    9157,    9223,    9263,    9264,    9261,    9683,    9682,    9662,    9663
    1301,    1467,    1468,    1488,    1487,    1005,    1006,    1026,    1025,    9158,    9157,    9117,    9159,    9221,    9261,    9262,    9259,    9684,    9683,    9663,    9664
    1302,    1411,    1467,    1487,    1412,    1004,    1005,    1025,    1003,    9160,    9159,    9119,    8846,    9219,    9259,    9260,    9187,    9190,    9684,    9664,    9191
    1303,    1447,    1439,    1440,    1486,     968,     948,     976,    1024,    7418,    8821,    9120,    9161,    7460,    8837,    9258,    9256,    7480,    7439,    8838,    9665
    1304,    1448,    1447,    1486,    1485,     967,     968,    1024,    1023,    7419,    9161,    9122,    9162,    7459,    9256,    9257,    9254,    7479,    7480,    9665,    9666
    1305,    1449,    1448,    1485,    1484,     966,     967,    1023,    1022,    7420,    9162,    9124,    9163,    7458,    9254,    9255,    9252,    7478,    7479,    9666,    9667
    1306,    1450,    1449,    1484,    1483,     965,     966,    1022,    1021,    7421,    9163,    9126,    9164,    7457,    9252,    9253,    9250,    7477,    7478,    9667,    9668
    1307,    1451,    1450,    1483,    1482,     964,     965,    1021,    1020,    7422,    9164,    9128,    9165,    7456,    9250,    9251,    9248,    7476,    7477,    9668,    9669
    1308,    1452,    1451,    1482,    1481,     963,     964,    1020,    1019,    7423,    9165,    9130,    9166,    7455,    9248,    9249,    9246,    7475,    7476,    9669,    9670
    1309,    1453,    1452,    1481,    1480,     962,     963,    1019,    1018,    7424,    9166,    9132,    9167,    7454,    9246,    9247,    9244,    7474,    7475,    9670,    9671
    1310,    1454,    1453,    1480,    1479,     961,     962,    1018,    1017,    7425,    9167,    9134,    9168,    7453,    9244,    9245,    9242,    7473,    7474,    9671,    9672
    1311,    1455,    1454,    1479,    1478,     960,     961,    1017,    1016,    7426,    9168,    9136,    9169,    7452,    9242,    9243,    9240,    7472,    7473,    9672,    9673
    1312,    1456,    1455,    1478,    1477,     959,     960,    1016,    1015,    7427,    9169,    9138,    9170,    7451,    9240,    9241,    9238,    7471,    7472,    9673,    9674
    1313,    1457,    1456,    1477,    1476,     958,     959,    1015,    1014,    7428,    9170,    9140,    9171,    7450,    9238,    9239,    9236,    7470,    7471,    9674,    9675
    1314,    1458,    1457,    1476,    1475,     957,     958,    1014,    1013,    7429,    9171,    9142,    9172,    7449,    9236,    9237,    9234,    7469,    7470,    9675,    9676
    1315,    1459,    1458,    1475,    1474,     956,     957,    1013,    1012,    7430,    9172,    9144,    9173,    7448,    9234,    9235,    9232,    7468,    7469,    9676,    9677
    1316,    1460,    1459,    1474,    1473,     955,     956,    1012,    1011,    7431,    9173,    9146,    9174,    7447,    9232,    9233,    9230,    7467,    7468,    9677,    9678
    1317,    1461,    1460,    1473,    1472,     954,     955,    1011,    1010,    7432,    9174,    9148,    9175,    7446,    9230,    9231,    9228,    7466,    7467,    9678,    9679
    1318,    1462,    1461,    1472,    1471,     953,     954,    1010,    1009,    7433,    9175,    9150,    9176,    7445,    9228,    9229,    9226,    7465,    7466,    9679,    9680
    1319,    1463,    1462,    1471,    1470,     952,     953,    1009,    1008,    7434,    9176,    9152,    9177,    7444,    9226,    9227,    9224,    7464,    7465,    9680,    9681
    1320,    1464,    1463,    1470,    1469,     951,     952,    1008,    1007,    7435,    9177,    9154,    9178,    7443,    9224,    9225,    9222,    7463,    7464,    9681,    9682
    1321,    1465,    1464,    1469,    1468,     950,     951,    1007,    1006,    7436,    9178,    9156,    9179,    7442,    9222,    9223,    9220,    7462,    7463,    9682,    9683
    1322,    1466,    1465,    1468,    1467,     949,     950,    1006,    1005,    7437,    9179,    9158,    9180,    7441,    9220,    9221,    9218,    7461,    7462,    9683,    9684
    1323,    1409,    1466,    1467,    1411,     947,     949,    1005,    1004,    7438,    9180,    9160,    8845,    7440,    9218,    9219,    9188,    7417,    7461,    9684,    9190
********************************** N O D E S E T S **********************************
*NSET, NSET=nset_back
       1,       2,       3,       4,       5,       6,
       7,       8,       9,      10,      11,      12,
      13,      14,      15,      16,      17,      18,
      19,      20,      21,      22,      23,      24,
      25,      26,      27,      28,      29,      30,
      31,      32,      33,      34,      35,      36,
      37,      38,      39,      40,      41,      42,
      43,      44,      45,      46,      47,      48,
      49,      50,      51,      52,      53,      54,
      55,      56,      57,      58,      59,      60,
      61,      62,      63,      64,      65,      66,
      67,      68,      69,      70,      71,      72,
      73,      74,      75,      76,      77,      78,
      79,      80,      81,      82,      83,      84,
      85,      86,      87,      88,      89,      90,
      91,      92,      93,      94,      95,      96,
      97,      98,      99,     100,     101,     102,
     103,     104,     105,     106,     107,     108,
     109,     110,     111,     112,     113,     114,
     115,     116,     117,     118,     119,     120,
     121,     122,     123,     124,     125,     126,
     127,     128,     129,     130,     131,     132,
     133,     134,     135,     136,     137,     138,
     139,     140,     141,     142,     143,     144,
     145,     146,     147,     148,     149,     150,
     151,     152,     153,     154,     155,     156,
     157,     158,     159,     160,     161,     162,
     163,     164,     165,     166,     167,     168,
     169,     170,     171,     172,     173,     174,
     175,     176,     177,     178,     179,     180,
     181,     182,     183,     184,     185,     186,
     187,     188,     189,     190,     191,     192,
     193,     194,     195,     196,     197,     198,
     199,     200,     201,     202,     203,     204,
     205,     206,     207,     208,     209,     210,
     211,     212,     213,     214,     215,     216,
     217,     218,     219,     220,     221,     222,
     223,     224,     225,     226,     227,     228,
     229,     230,     231,     232,     233,     234,
     235,     236,     237,     238,     239,     240,
     241,     242,     243,     244,     245,     246,
     247,     248,     249,     250,     251,     252,
     253,     254,     255,     256,     257,     258,
     259,     260,     261,     262,     263,     264,
     265,     266,     267,     268,     269,     270,
     271,     272,     273,     274,     275,     276,
     277,     278,     279,     280,     281,     282,
     283,     284,     285,     286,     287,     288,
     289,     290,     291,     292,     293,     294,
     295,     296,     297,     298,     299,     300,
     301,     302,     303,     304,     305,     306,
     307,     308,     309,     310,     311,     312,
     313,     314,     315,     316,     317,     318,
     319,     320,     321,     322,     323,     324,
     325,     326,     327,     328,     329,     330,
     331,     332,     333,     334,     335,     336,
     337,     338,     339,     340,     341,     342,
     343,     344,     345,     346,     347,     348,
     349,     350,     351,     352,     353,     354,
     355,     356,     357,     358,     359,     360,
     361,     362,     363,     364,     365,     366,
     367,     368,     369,     370,     371,     372,
     373,     374,     375,     376,     377,     378,
     379,     380,     381,     382,     383,     384,
     385,     386,     387,     388,     389,     390,
     391,     392,     393,     394,     395,     396,
     397,     398,     399,     400,     401,     402,
     403,     404,     405,     406,     407,     408,
     409,     410,     411,     412,     413,     414,
     415,     416,     417,     418,     419,     420,
     421,     422,     423,     424,     425,     426,
     427,     428,     429,     430,     431,     432,
     433,     434,     435,     436,     437,     438,
     439,     440,     441,     442,     443,     444,
     445,     446,     447,     448,     449,     450,
     451,     452,     453,     454,     455,     456,
     457,     458,     459,     460,     461,     462,
     463,     464,     465,     466,     467,     468,
     469,     470,     471,     472,     473,     474,
     475,     476,     477,     478,     479,     480,
     481,     482,     483,     484,     485,     486,
     487,     488,     489,     490,     491,     492,
     493,     494,     495,     496,     497,     498,
     499,     500,     501,     502,     503,     504,
     505,     506,     507,     508,     509,     510,
     511,     512,     513,     514,     515,     516,
     517,     518,     519,     520,     521,     522,
     523,     524,     525,     526,     527,     528,
     529,     530,     531,     532,     533,     534,
     535,     536,     537,     538,     539,     540,
     541,     542,     543,     544,     545,     546,
     547,     548,     549,     550,     551,     552,
     553,     554,     555,     556,     557,     558,
     559,     560,     561,     562,     563,     564,
     565,     566,     567,     568,     569,     570,
     571,     572,     573,     574,     575,     576,
     577,     578,     579,     580,     581,     582,
     583,     584,     585,     586,     587,     588,
     589,     590,     591,     592,     593,     594,
     595,     596,     597,     598,     599,     600,
     601,     602,     603,     604,     605,     606,
     607,     608,     609,     610,     611,     612,
     613,     614,     615,     616,     617,     618,
     619,     620,     621,     622,     623,     624,
     625,     626,     627,     628,     629,     630,
     631,     632,     633,     634,     635,     636,
     637,     638,     639,     640,     641,     642,
     643,     644,     645,     646,     647,     648,
     649,     650,     651,     652,     653,     654,
     655,     656,     657,     658,     659,     660,
     661,     662,     663,     664,     665,     666,
     667,     668,     669,     670,     671,     672,
     673,     674,     675,     676,     677,     678,
     679,     680,     681,     682,     683,     684,
     685,     686,     687,     688,     689,     690,
     691,     692,     693,     694,     695,     696,
     697,     698,     699,     700,     701,     702,
     703,     704,     705,     706,     707,     708,
     709,     710,     711,     712,     713,     714,
     715,     716,     717,     718,     719,     720,
     721,     722,     723,     724,     725,     726,
     727,     728,     729,     730,     731,     732,
     733,     734,     735,     736,     737,     738,
     739,     740,     741,     742,     743,     744,
     745,     746,     747,     748,     749,     750,
     751,     752,     753,     754,     755,     756,
     757,     758,     759,     760,     761,     762,
     763,     764,     765,     766,     767,     768,
     769,     770,     771,     772,     773,     774,
     775,     776,     777,     778,     779,     780,
     781,     782,     783,     784,     785,     786,
     787,     788,     789,     790,     791,     792,
     793,     794,     795,     796,     797,     798,
     799,     800,     801,     802,     803,     804,
     805,     806,     807,     808,     809,     810,
     811,     812,     813,     814,     815,     816,
     817,     818,     819,     820,     821,     822,
     823,     824,     825,     826,     827,     828,
     829,     830,     831,     832,     833,     834,
     835,     836,     837,     838,     839,     840,
     841,     842,     843,     844,     845,     846,
     847,     848,     849,     850,     851,     852,
     853,     854,     855,     856,     857,     858,
     859,     860,     861,     862,     863,     864,
     865,     866,     867,     868,     869,     870,
     871,     872,     873,     874,     875,     876,
     877,     878,     879,     880,     881,     882,
     883,     884,     885,     886,     887,     888,
     889,     890,     891,     892,     893,     894,
     895,     896,     897,     898,     899,     900,
     901,     902,     903,     904,     905,     906,
     907,     908,     909,     910,     911,     912,
     913,     914,     915,     916,     917,     918,
     919,     920,     921,     922,     923,     924,
     925,     926,     927,     928,     929,     930,
     931,     932,     933,     934,     935,     936,
     937,     938,     939,     940,     941,     942,
     943,     944,     945,     946,     947,     948,
     949,     950,     951,     952,     953,     954,
     955,     956,     957,     958,     959,     960,
     961,     962,     963,     964,     965,     966,
     967,     968,     969,     970,     971,     972,
     973,     974,     975,     976,     977,     978,
     979,     980,     981,     982,     983,     984,
     985,     986,     987,     988,     989,     990,
     991,     992,     993,     994,     995,     996,
     997,     998,     999,    1000,    1001,    1002,
    1003,    1004,    1005,    1006,    1007,    1008,
    1009,    1010,    1011,    1012,    1013,    1014,
    1015,    1016,    1017,    1018,    1019,    1020,
    1021,    1022,    1023,    1024,    1025,    1026,
    1027,    1028,    1029,    1030,    1031,    1032,
    1033,    1034,    1035,    1036,    1037,    1038,
    1039,    1040,    1041,    1042,    1043,    1044,
    1045,    1046,    1047,    1048,    1049,    1050,
    1051,    1052,    1053,    1054,    1055,    1056,
    1057,    1058,    1059,    1060,    1061,    1062,
    1063,    1064,    1065,    1066,    1067,    1068,
    1069,    1070,    1071,    1072,    1073,    1074,
    1075,    1076,    1077,    1078,    1079,    1080,
    1081,    1082,    1083,    1084,    1085,    1086,
    1087,    1088,    1089,    1090,    1091,    1092,
    1093,    1094,    1095,    1096,    1097,    1098,
    1099,    1100,    1101,    1102,    1103,    1104,
    1105,    1106,    1107,    1108,    1109,    1110,
    1111,    1112,    1113,    1114,    1115,    1116,
    1117,    1118,    1119,    1120,    1121,    1122,
    1123,    1124,    1125,    1126,    1127,    1128,
    1129,    1130,    1131,    1132,    1133,    1134,
    1135,    1136,    1137,    1138,    1139,    1140,
    1141,    1142,    1143,    1144,    1145,    1146,
    1147,    1148,    1149,    1150,    1151,    1152,
    1153,    1154,    1155,    1156,    1157,    1158,
    1159,    1160,    1161,    1162,    1163,    1164,
    1165,    1166,    1167,    1168,    1169,    1170,
    1171,    1172,    1173,    1174,    1175,    1176,
    1177,    1178,    1179,    1180,    1181,    1182,
    1183,    1184,    1185,    1186,    1187,    1188,
    1189,    1190,    1191,    1192,    1193,    1194,
    1195,    1196,    1197,    1198,    1199,    1200,
    1201,    1202,    1203,    1204,    1205,    1206,
    1207,    1208,    1209,    1210,    1211,    1212,
    1213,    1214,    1215,    1216,    1217,    1218,
    1219,    1220,    1221,    1222,    1223,    1224,
    1225,    1226,    1227,    1228,    1229,    1230,
    1231,    1232,    1233,    1234,    1235,    1236,
    1237,    1238,    1239,    1240,    1241,    1242,
    1243,    1244,    1245,    1246,    1247,    1248,
    1249,    1250,    1251,    1252,    1253,    1254,
    1255,    1256,    1257,    1258,    1259,    1260,
    1261,    1262,    1263,    1264,    1265,    1266,
    1267,    1268,    1269,    1270,    1271,    1272,
    1273,    1274,    1275,    1276,    1277,    1278,
    1279,    1280,    1281,    1282,    1283,    1284,
    1285,    1286,    1287,    1288,    1289,    1290,
    1291,    1292,    1293,    1294,    1295,    1296,
    1297,    1298,    1299,    1300,    1301,    1302,
    1303,    1304,    1305,    1306,    1307,    1308,
    1309,    1310,    1311,    1312,    1313,    1314,
    1315,    1316,    1317,    1318,    1319,    1320,
    1321,    1322,    1323,    1324,    1325,    1326,
    1327,    1328,    1329,    1330,    1331,    1332,
    1333,    1334,    1335,    1336,    1337,    1338,
    1339,    1340,    1341,    1342,    1343,    1344,
    1345,    1346,    1347,    1348,    1349,    1350,
    1351,    1352,    1353,    1354,    1355,    1356,
    1357,    1358,    1359,    1360,    1361,    1362,
    1363,    1364,    1365,    1366,    1367,    1368,
    1369,    1370,    1371,    1372,    1373,    1374,
    1375,    1376,    1377,    1378,    1379,    1380,
    1381,    1382,    1383,    1384,    1385,    1386,
    1387,    1388,    1389,    1390,    1391,    1392,
    1393,    1394,    1395,    1396,    1397,    1398,
    1399,    1400,    1401,    1402,    1403,    1404,
    1405,    1406,    1407,    1408,    2840,    2841,
    2842,    2843,    2844,    2845,    2846,    2847,
    2848,    2849,    2850,    2851,    2852,    2853,
    2854,    2855,    2856,    2857,    2858,    2859,
    2860,    2886,    2887,    2888,    2889,    3061,
    3062,    3063,    3064,    3069,    3070,    3071,
    3072,    3073,    3074,    3075,    3076,    3077,
    3078,    3079,    3080,    3081,    3082,    3083,
    3084,    3085,    3086,    3087,    3088,    3089,
    3090,    3091,    3092,    3093,    3094,    3095,
    3096,    3097,    3098,    3099,    3100,    3101,
    3102,    3103,    3104,    3105,    3106,    3107,
    3108,    3109,    3110,    3111,    3112,    3113,
    3114,    3115,    3116,    3117,    3118,    3119,
    3120,    3121,    3122,    3123,    3124,    3125,
    3126,    3127,    3128,    3129,    3130,    3131,
    3132,    3133,    3134,    3135,    3136,    3137,
    3138,    3139,    3140,    3141,    3142,    3143,
    3144,    3145,    3146,    3147,    3148,    3149,
    3150,    3151,    3152,    3153,    3154,    3155,
    3156,    3157,    3158,    3159,    3160,    3161,
    3162,    3163,    3164,    3165,    3166,    3167,
    3168,    3169,    3170,    3171,    3172,    3173,
    3174,    3175,    3176,    3177,    3178,    3179,
    3180,    3181,    3182,    3183,    3184,    3185,
    3186,    3187,    3188,    3189,    3190,    3191,
    3192,    3193,    3194,    3195,    3196,    3197,
    3198,    3199,    3200,    3201,    3202,    3203,
    3204,    3205,    3206,    3207,    3208,    3209,
    3210,    3211,    3212,    3213,    3214,    3215,
    3216,    3217,    3218,    3219,    3220,    3221,
    3222,    3223,    3224,    3225,    3226,    3227,
    3228,    3229,    3230,    3231,    3232,    3314,
    3315,    3316,    3317,    3318,    3319,    3320,
    3321,    3322,    3323,    3324,    3325,    3326,
    3327,    3328,    3329,    3330,    3331,    3332,
    3333,    3334,    4281,    4282,    4283,    4284,
    4285,    4286,    4287,    4288,    4289,    4290,
    4291,    4292,    4293,    4294,    4295,    4296,
    4297,    4298,    4299,    4300,    4301,    4322,
    4323,    4324,    4325,    4326,    4327,    4328,
    4329,    4330,    4331,    4332,    4333,    4334,
    4335,    4336,    4337,    4338,    4339,    4340,
    4341,    4342,    4364,    4365,    4366,    4367,
    4368,    4369,    4370,    4371,    4372,    4373,
    4374,    4375,    4376,    4377,    4378,    4379,
    4380,    4381,    4382,    4383,    4384,    4385,
    4386,    4387,    4388,    4389,    4390,    4391,
    4392,    4393,    4394,    4395,    4396,    4397,
    4398,    4399,    4400,    4401,    4402,    4403,
    4404,    4405,    4406,    4407,    4408,    4409,
    4410,    4411,    4412,    4413,    4414,    4415,
    4416,    4417,    4418,    4419,    4420,    4421,
    4422,    4423,    4424,    4425,    4426,    4427,
    4428,    4429,    4430,    4431,    4432,    4433,
    4434,    4435,    4436,    4437,    4438,    4439,
    4440,    4441,    4442,    4443,    4444,    4445,
    4446,    4447,    4448,    4449,    4450,    4451,
    4452,    4453,    4454,    4455,    4456,    4457,
    4458,    4459,    4460,    4461,    4462,    4463,
    4464,    4465,    4466,    4467,    4468,    4469,
    4470,    4471,    4472,    4473,    4474,    4475,
    4476,    4477,    4478,    4479,    4480,    4481,
    4482,    4483,    4484,    4485,    4486,    4487,
    4488,    4489,    4490,    4491,    4492,    4493,
    4494,    4495,    4496,    4497,    4498,    4499,
    4500,    4501,    4502,    4503,    4504,    4505,
    4506,    4507,    4508,    4509,    4510,    4511,
    4512,    4513,    4514,    4515,    4516,    4517,
    4518,    4519,    4520,    4521,    4522,    4523,
    4524,    4525,    4526,    4527,    4528,    4529,
    4530,    4531,    4532,    4533,    4534,    4535,
    4536,    4537,    4538,    4539,    4540,    4541,
    4542,    4543,    4544,    4545,    4546,    4547,
    4548,    4549,    4550,    4551,    4552,    4553,
    4554,    4555,    4556,    4557,    4558,    4559,
    4560,    4561,    4562,    4563,    4564,    4565,
    4566,    4567,    4568,    4569,    4570,    4571,
    4572,    4573,    4574,    4575,    4576,    4577,
    4578,    4579,    4580,    4581,    4582,    4583,
    4584,    4585,    4586,    4587,    4588,    4589,
    4590,    4591,    4592,    4593,    4594,    4595,
    4596,    4597,    4598,    4599,    4600,    4601,
    4602,    4603,    4604,    4605,    4606,    4607,
    4608,    4609,    4610,    4611,    4612,    4613,
    4614,    4615,    4616,    4617,    4618,    4619,
    4620,    4621,    4622,    4623,    4624,    4625,
    4626,    4627,    4628,    4629,    4630,    4631,
    4632,    4633,    4634,    4635,    4636,    4637,
    4638,    4639,    4640,    4641,    4642,    4643,
    4644,    4645,    4646,    4647,    4648,    4649,
    4650,    4651,    4652,    4653,    4654,    4655,
    4656,    4657,    4658,    4659,    4660,    4661,
    4662,    4663,    4664,    4665,    4666,    4667,
    4668,    4669,    4670,    4671,    4672,    4673,
    4674,    4675,    4676,    4677,    4678,    4679,
    4680,    4681,    4682,    4683,    4684,    4685,
    4686,    4687,    4688,    4689,    4690,    4691,
    4692,    4693,    4694,    4695,    4696,    4697,
    4698,    4699,    4700,    4701,    4702,    4703,
    4704,    4705,    4706,    4707,    4708,    4709,
    4710,    4711,    4712,    4713,    4714,    4715,
    4716,    4717,    4718,    4719,    4720,    4721,
    4722,    4723,    4724,    4725,    4726,    4727,
    4728,    4729,    4730,    4731,    4732,    4733,
    4734,    4735,    4736,    4737,    4738,    4739,
    4740,    4741,    4742,    4743,    4744,    4745,
    4746,    4747,    4748,    4749,    4750,    4751,
    4752,    4753,    4754,    4755,    4756,    4757,
    4758,    4759,    4760,    4761,    4762,    4763,
    4764,    4765,    4766,    4767,    4768,    4769,
    4770,    4771,    4772,    4773,    4774,    4775,
    4776,    4777,    4778,    4779,    4780,    4781,
    4782,    4783,    4784,    4785,    4786,    4787,
    4788,    4789,    4790,    4791,    4792,    4793,
    4794,    4795,    4796,    4797,    4798,    4799,
    4800,    4801,    4802,    4803,    4804,    4805,
    4806,    4807,    4808,    4809,    4810,    4811,
    4812,    4813,    4814,    4815,    4816,    4817,
    4818,    4819,    4820,    4821,    4822,    4823,
    4824,    4825,    4826,    4827,    4828,    4829,
    4830,    4831,    4832,    4833,    4834,    4835,
    4836,    4837,    4838,    4839,    4840,    4841,
    4842,    4843,    4844,    4845,    4846,    4847,
    4848,    4849,    4850,    4851,    4852,    4853,
    4854,    4855,    4856,    4857,    4858,    4859,
    4860,    4861,    4862,    4863,    4864,    4865,
    4866,    4867,    4868,    4869,    4870,    4871,
    4872,    4873,    4874,    4875,    4876,    4877,
    4878,    4879,    4880,    4881,    4882,    4883,
    4884,    4885,    4886,    4887,    4888,    4889,
    4890,    4891,    4892,    4893,    4894,    4895,
    4896,    4897,    4898,    4899,    4900,    4901,
    4902,    4903,    4904,    4905,    4906,    4907,
    4908,    4909,    4910,    4911,    4912,    4913,
    4914,    4915,    4916,    4917,    4918,    4919,
    4920,    4921,    4922,    4923,    4924,    4925,
    4926,    4927,    4928,    4929,    4930,    4931,
    4932,    4933,    4934,    4935,    4936,    4937,
    4938,    4939,    4940,    4941,    4942,    4943,
    4944,    4945,    4946,    4947,    4948,    4949,
    4950,    4951,    4952,    4953,    4954,    4955,
    4956,    4957,    4958,    4959,    4960,    4961,
    4962,    4963,    4964,    4965,    4966,    4967,
    4968,    4969,    4970,    4971,    4972,    4973,
    4974,    4975,    4976,    4977,    4978,    4979,
    4980,    4981,    4982,    4983,    4984,    4985,
    4986,    4987,    4988,    4989,    4990,    4991,
    4992,    4993,    4994,    4995,    4996,    4997,
    4998,    4999,    5000,    5001,    5002,    5003,
    5004,    5005,    5006,    5007,    5008,    5009,
    5010,    5011,    5012,    5013,    5014,    5015,
    5016,    5017,    5018,    5019,    5020,    5021,
    5022,    5023,    5024,    5025,    5026,    5027,
    5028,    5029,    5030,    5031,    5032,    5033,
    5034,    5035,    5036,    5037,    5038,    5039,
    5040,    5041,    5042,    5043,    5044,    5045,
    5046,    5047,    5048,    5049,    5050,    5051,
    5052,    5053,    5054,    5055,    5056,    5057,
    5058,    5059,    5060,    5061,    5062,    5063,
    5064,    5065,    5066,    5067,    5068,    5069,
    5070,    5071,    5072,    5073,    5074,    5075,
    5076,    5077,    5078,    5079,    5080,    5081,
    5082,    5083,    5084,    5085,    5086,    5087,
    5088,    5089,    5090,    5091,    5092,    5093,
    5094,    5095,    5096,    5097,    5098,    5099,
    5100,    5101,    5102,    5103,    5104,    5105,
    5106,    5107,    5108,    5109,    5110,    5111,
    5112,    5113,    5114,    5115,    5116,    5117,
    5118,    5119,    5120,    5121,    5122,    5123,
    5124,    5125,    5126,    5127,    5128,    5129,
    5130,    5131,    5132,    5133,    5134,    5135,
    5136,    5137,    5138,    5139,    5140,    5141,
    5142,    5143,    5144,    5145,    5146,    5147,
    5148,    5149,    5150,    5151,    5152,    5153,
    5154,    5155,    5156,    5157,    5158,    5159,
    5160,    5161,    5162,    5163,    5164,    5165,
    5166,    5167,    5168,    5169,    5170,    5171,
    5172,    5173,    5174,    5175,    5176,    5177,
    5178,    5179,    5180,    5181,    5182,    5183,
    5184,    5185,    5186,    5187,    5188,    5189,
    5190,    5191,    5192,    5193,    5194,    5195,
    5196,    5197,    5198,    5199,    5200,    5201,
    5202,    5203,    5204,    5205,    5206,    5207,
    5208,    5209,    5210,    5211,    5212,    5213,
    5214,    5215,    5216,    5217,    5218,    5219,
    5220,    5221,    5222,    5223,    5224,    5645,
    5646,    5647,    5648,    5649,    5650,    5651,
    5652,    5653,    5654,    5655,    5656,    5657,
    5658,    5659,    5660,    5661,    5662,    5663,
    5664,    5665,    5666,    5667,    5668,    5669,
    5670,    5671,    5672,    5673,    5674,    5675,
    5676,    5677,    5678,    5679,    5680,    5681,
    5682,    5683,    5684,    5685,    5686,    5687,
    5688,    5689,    5690,    5691,    5692,    5693,
    5694,    5695,    5696,    5697,    5698,    5699,
    5700,    5701,    5702,    5703,    5704,    5705,
    5706,    5707,    5708,    5709,    5710,    5711,
    5712,    5713,    5714,    5715,    5716,    5717,
    5718,    5719,    5720,    5721,    5722,    5723,
    5724,    5725,    5726,    5727,    5728,    5729,
    5730,    5731,    5732,    5733,    5734,    5735,
    5736,    5737,    5738,    5739,    5740,    5741,
    5742,    5743,    5744,    5745,    5746,    5747,
    5748,    5749,    5750,    5751,    5752,    5753,
    5754,    5755,    5756,    5757,    5758,    5759,
    5760,    5761,    5762,    5763,    5764,    5765,
    5766,    5767,    5768,    5769,    5770,    5771,
    5772,    5773,    5774,    5775,    5776,    5777,
    5778,    5779,    5780,    5781,    5782,    5783,
    5784,    5785,    5786,    5787,    5788,    5789,
    5790,    5791,    5792,    5793,    5794,    5795,
    5796,    5797,    5798,    5799,    5800,    5801,
    5802,    5803,    5804,    5805,    5806,    5807,
    5808,    5809,    5810,    5811,    5812,    5813,
    5814,    5815,    5816,    5817,    5818,    5819,
    5820,    5821,    5822,    5823,    5824,    5825,
    5826,    5827,    5828,    5829,    5830,    5831,
    5832,    5833,    5834,    5835,    5836,    5837,
    5838,    5839,    5840,    5841,    5842,    5843,
    5844,    5845,    5846,    5847,    5848,    5849,
    5850,    5851,    5852,    5853,    5854,    5855,
    5856,    5857,    5858,    5859,    5860,    5861,
    5862,    5863,    5864,    5865,    5866,    5867,
    5868,    5869,    5870,    5871,    5872,    5873,
    5874,    5875,    5876,    5877,    5878,    5879,
    5880,    5881,    5882,    5883,    5884,    5885,
    5886,    5887,    5888,    5889,    5890,    5891,
    5892,    5893,    5894,    5895,    5896,    5897,
    5898,    5899,    5900,    5901,    5902,    5903,
    5904,    5905,    5906,    5907,    5908,    5909,
    5910,    5911,    5912,    5913,    5914,    5915,
    5916,    5917,    5918,    5919,    5920,    5921,
    5922,    5923,    5924,    5925,    5926,    5927,
    5928,    5929,    5930,    5931,    5932,    5933,
    5934,    5935,    5936,    5937,    5938,    5939,
    5940,    5941,    5942,    5943,    5944,    5945,
    5946,    5947,    5948,    5949,    5950,    5951,
    5952,    5953,    5954,    5955,    5956,    5957,
    5958,    5959,    5960,    5961,    5962,    5963,
    5964,    5965,    5966,    5967,    5968,    5969,
    5970,    5971,    5972,    5973,    5974,    5975,
    5976,    5977,    5978,    5979,    5980,    5981,
    5982,    5983,    5984,    5985,    5986,    5987,
    5988,    5989,    5990,    5991,    5992,    5993,
    5994,    5995,    5996,    5997,    5998,    5999,
    6000,    6001,    6002,    6003,    6004,    6005,
    6006,    6007,    6008,    6009,    6010,    6011,
    6012,    6013,    6014,    6015,    6016,    6017,
    6018,    6019,    6020,    6021,    6022,    6023,
    6024,    6025,    6026,    6027,    6028,    6029,
    6030,    6031,    6032,    6033,    6034,    6035,
    6036,    6037,    6038,    6039,    6040,    6041,
    6042,    6043,    6044,    6045,    6046,    6047,
    6048,    6049,    6050,    6051,    6052,    6053,
    6054,    6055,    6056,    6057,    6058,    6059,
    6060,    6061,    6062,    6063,    6064,    6065,
    6066,    6067,    6068,    6069,    6070,    6071,
    6072,    6073,    6074,    6075,    6076,    6077,
    6078,    6079,    6080,    6081,    6082,    6083,
    6084,    6085,    6086,    6087,    6088,    6089,
    6090,    6091,    6092,    6093,    6094,    6095,
    6096,    6097,    6098,    6099,    6100,    6101,
    6102,    6103,    6104,    6105,    6106,    6107,
    6108,    6109,    6110,    6111,    6112,    6113,
    6114,    6115,    6116,    6117,    6118,    6119,
    6120,    6121,    6122,    6123,    6124,    6125,
    6126,    6127,    6128,    6129,    6130,    6131,
    6132,    6133,    6134,    6135,    6136,    6137,
    6138,    6139,    6140,    6141,    6142,    6143,
    6144,    6145,    6146,    6147,    6148,    6149,
    6150,    6151,    6152,    6153,    6154,    6155,
    6156,    6157,    6158,    6159,    6160,    6161,
    6162,    6163,    6164,    6165,    6166,    6167,
    6168,    6169,    6170,    6171,    6172,    6173,
    6174,    6175,    6176,    6177,    6178,    6179,
    6180,    6181,    6182,    6183,    6184,    6185,
    6186,    6187,    6188,    6189,    6190,    6191,
    6192,    6193,    6194,    6195,    6196,    6197,
    6198,    6199,    6200,    6201,    6202,    6203,
    6204,    6205,    6206,    6207,    6208,    6209,
    6210,    6211,    6212,    6213,    6214,    6215,
    6216,    6217,    6218,    6219,    6220,    6221,
    6222,    6223,    6224,    6225,    6226,    6227,
    6228,    6229,    6230,    6231,    6232,    6233,
    6234,    6235,    6236,    6237,    6238,    6239,
    6240,    6241,    6242,    6243,    6244,    6245,
    6246,    6247,    6248,    6249,    6250,    6251,
    6252,    6253,    6254,    6255,    6256,    6257,
    6258,    6259,    6260,    6261,    6262,    6263,
    6264,    6265,    6266,    6267,    6268,    6269,
    6270,    6271,    6272,    6273,    6274,    6275,
    6276,    6277,    6278,    6279,    6280,    6281,
    6282,    6283,    6284,    6285,    6286,    6287,
    6288,    6289,    6290,    6291,    6292,    6293,
    6294,    6295,    6296,    6297,    6298,    6299,
    6300,    6301,    6302,    6303,    6304,    6305,
    6306,    6307,    6308,    6309,    6310,    6311,
    6312,    6313,    6314,    6315,    6316,    6317,
    6318,    6319,    6320,    6321,    6322,    6323,
    6324,    6325,    6326,    6327,    6328,    6329,
    6330,    6331,    6332,    6333,    6334,    6335,
    6336,    6337,    6338,    6339,    6340,    6341,
    6342,    6343,    6344,    6345,    6346,    6347,
    6348,    6349,    6350,    6351,    6352,    6353,
    6354,    7440,    7441,    7442,    7443,    7444,
    7445,    7446,    7447,    7448,    7449,    7450,
    7451,    7452,    7453,    7454,    7455,    7456,
    7457,    7458,    7459,    7460,    7481,    7482,
    7483,    7484,    7485,    7486,    7487,    7488,
    7489,    7490,    7491,    7492,    7493,    7494,
    7495,    7496,    7497,    7498,    7499,    7500,
    7501,    7502,    7503,    7504,    7505,    7506,
    7507,    7508,    7509,    7510,    7511,    7512,
    7513,    7514,    7515,    7516,    7517,    7518,
    7519,    7520,    7521,    7522,    7523,    7524,
    7525,    7526,    7527,    7528,    7529,    7530,
    7531,    7532,    7533,    7534,    7535,    7536,
    7537,    7538,    7539,    7540,    7541,    7542,
    7543,    7544,    7545,    7546,    7547,    7548,
    7549,    7550,    7551,    7552,    7553,    7554,
    7555,    7556,    7557,    7558,    7559,    7560,
    7561,    7562,    7563,    7564,    7565,    7566,
    7567,    7568,    7569,    7570,    7571,    7572,
    7573,    7574,    7575,    7576,    7577,    7578,
    7579,    7580,    7581,    7582,    7583,    7584,
    7585,    7586,    7587,    7588,    7589,    7590,
    7591,    7592,    7593,    7594,    7595,    7596,
    7597,    7598,    7599,    7600,    7601,    7602,
    7603,    7604,    7605,    7606,    7607,    7608,
    7609,    7610,    7611,    7612,    7613,    7614,
    7615,    7616,    7617,    7618,    7619,    7620,
    7621,    7622,    7623,    7624,    7625,    7626,
    7627,    7628,    7629,    7630,    7631,    7632,
    7633,    7634,    7635,    7636,    7637,    7638,
    7639,    7640,    7641,    7642,    7643,    7644,
    7645,    7646,    7647,    7648,    7649,    7650,
    7651,    7652,    7653,    7654,    7655,    7656,
    7657,    7658,    7659,    7660,    7661,    7662,
    7663,    7664,    7665,    7666,    7667,    7668,
    7669,    7670,    7671,    7672,    7673,    7674,
    7675,    7676,    7677,    7678,    7679,    7680,
    7681,    7682,    7683,    7684,    7685,    7686,
    7687,    7688,    7689,    7690,    7691,    7692,
    7693,    7694,    7695,    7696,    7697,    7698,
    7699,    7700,    7701,    7702,    7703,    7704,
    7705,    7706,    7707,    7708,    7709,    7710,
    7711,    7712,    7713,    7714,    7715,    7716,
    7717,    7718,    7719,    7720,    7721,    7722,
    7723,    7724,    7725,    7726,    7727,    7728,
    7729,    7730,    7731,    7732,    7733,    7734,
    7735,    7736,    7737,    7738,    7739,    7740,
    7741,    7742,    7743,    7744,    7745,    7746,
    7747,    7748,    7749,    7750,    7751,    7752,
    7753,    7754,    7755,    7756,    7757,    7758,
    7759,    7760,    7761,    7762,    7763,    7764,
    7765,    7766,    7767,    7768,    7769,    7770,
    7771,    7772,    7773,    7774,    7775,    7776,
    7777,    7778,    7779,    7780,    7781,    7782,
    7783,    7784,    7785,    7786,    7787,    7788,
    7789,    7790,    7791,    7792,    7793,    7794,
    7795,    7796,    7797,    7798,    7799,    7800,
    7801,    7802,    7803,    7804,    7805,    7806,
    7807,    7808,    7809,    7810,    7811,    7812,
    7813,    7814,    7815,    7816,    7817,    7818,
    7819,    7820,    7821,    7822,    7823,    7824,
    7825,    7826,    7827,    7828,    7829,    7830,
    7831,    7832,    7833,    7834,    7835,    7836,
    7837,    7838,    7839,    7840,    7841,    7842,
    7843,    7844,    7845,    7846,    7847,    7848,
    7849,    7850,    7851,    7852,    7853,    7854,
    7855,    7856,    7857,    7858,    7859,    7860,
    7861,    7862,    7863,    7864,    7865,    7866,
    7867,    7868,    7869,    7870,    7871,    7872,
    7873,    7874,    7875,    7876,    7877,    7878,
    7879,    7880,    7881,    7882,    7883,    7884,
    7885,    7886,    7887,    7888,    7889,    7890,
    7891,    7892,    7893,    7894,    7895,    7896,
    7897,    7898,    7899,    7900,    7901,    7902,
    7903,    7904,    7905,    7906,    7907,    7908,
    7909,    7910,    7911,    7912,    7913,    7914,
    7915,    7916,    7917,    7918,    7919,    7920,
    7921,    7922,    7923,    7924,    7925,    7926,
    7927,    7928,    7929,    7930,    7931,    7932,
    7933,    7934,    7935,    7936,    7937,    7938,
    7939,    7940,    7941,    7942,    7943,    7944,
    7945,    7946,    7947,    7948,    7949,    7950,
    7951,    7952,    7953,    7954,    7955,    7956,
    7957,    7958,    7959,    7960,    7961,    7962,
    7963,    7964,    7965,    7966,    7967,    7968,
    7969,    7970,    7971,    7972,    7973,    7974,
    7975,    7976,    7977,    7978,    7979,    7980,
    7981,    7982,    7983,    7984,    7985,    7986,
    7987,    7988,    7989,    7990,    7991,    7992,
    7993,    7994,    7995,    7996,    7997,    7998,
    7999,    8000,    8001,    8002,    8003,    8004,
    8005,    8006,    8007,    8008,    8009,    8010,
    8011,    8012,    8013,    8014,    8015,    8016,
    8017,    8018,    8830,    8831,    8832,    8833,
    8834,    8835,    8836,    8837,    9181,    9182,
    9183,    9184,    9185,    9186,    9187,    9188,
    9197,    9198,    9199,    9200,    9201,    9202,
    9203,    9204,    9205,    9206,    9207,    9208,
    9209,    9210,    9211,    9212,    9213,    9214,
    9215,    9216,    9217,    9218,    9219,    9220,
    9221,    9222,    9223,    9224,    9225,    9226,
    9227,    9228,    9229,    9230,    9231,    9232,
    9233,    9234,    9235,    9236,    9237,    9238,
    9239,    9240,    9241,    9242,    9243,    9244,
    9245,    9246,    9247,    9248,    9249,    9250,
    9251,    9252,    9253,    9254,    9255,    9256,
    9257,    9258,    9259,    9260,    9261,    9262,
    9263,    9264,    9265,    9266,    9267,    9268,
    9269,    9270,    9271,    9272,    9273,    9274,
    9275,    9276,    9277,    9278,    9279,    9280,
    9281,    9282,    9283,    9284,    9285,    9286,
    9287,    9288,    9289,    9290,    9291,    9292,
    9293,    9294,    9295,    9296,    9297,    9298,
    9299,    9300,    9301,    9302,    9303,    9304,
    9305,    9306,    9307,    9308,    9309,    9310,
    9311,    9312,    9313,    9314,    9315,    9316,
    9317,    9318,    9319,    9320,    9321,    9322,
    9323,    9324,    9325,    9326,    9327,    9328,
    9329,    9330,    9331,    9332,    9333,    9334,
    9335,    9336,    9337,    9338,    9339,    9340,
    9341,    9342,    9343,    9344,    9345,    9346,
    9347,    9348,    9349,    9350,    9351,    9352,
    9353,    9354,    9355,    9356,    9357,    9358,
    9359,    9360,    9361,    9362,    9363,    9364,
    9365,    9366,    9367,    9368,    9369,    9370,
    9371,    9372,    9373,    9374,    9375,    9376,
    9377,    9378,    9379,    9380,    9381,    9382,
    9383,    9384,    9385,    9386,    9387,    9388,
    9389,    9390,    9391,    9392,    9393,    9394,
    9395,    9396,    9397,    9398,    9399,    9400,
    9401,    9402,    9403,    9404,    9405,    9406,
    9407,    9408,    9409,    9410,    9411,    9412,
    9413,    9414,    9415,    9416,    9417,    9418,
    9419,    9420,    9421,    9422,    9423,    9424,
    9425,    9426,    9427,    9428,    9429,    9430,
    9431,    9432,    9433,    9434,    9435,    9436,
    9437,    9438,    9439,    9440,    9441,    9442,
    9443,    9444,    9445,    9446,    9447,    9448,
    9449,    9450,    9451,    9452,    9453,    9454,
    9455,    9456,    9457,    9458,    9459,    9460,
    9461,    9462,    9463,    9464,    9465,    9466,
    9467,    9468,    9469,    9470,    9471,    9472,
    9473,    9474,    9475,    9476,    9477,    9478,
    9479,    9480,    9481,    9482,    9483,    9484,
    9485,    9486,    9487,    9488,    9489,    9490,
    9491,    9492,    9493,    9494,    9495,    9496,
    9497,    9498,    9499,    9500,    9501,    9502,
    9503,    9504,    9505,    9506,    9507,    9508,
    9509,    9510,    9511,    9512,    9513,    9514,
    9515,    9516,    9517,    9518,    9519,    9520,
    9521,    9522,    9523,    9524,
*NSET, NSET=nset_load_application
     485,    1607,    2817,
*NSET, NSET=nset_bottom
     969,     977,     978,     979,     980,     981,
     982,     983,     984,     985,     986,     987,
     988,     989,     990,     991,     992,     993,
     994,     995,     996,     997,    1410,    1418,
    1419,    1420,    1421,    1422,    1423,    1424,
    1425,    1426,    1427,    1428,    1429,    1430,
    1431,    1432,    1433,    1434,    1435,    1436,
    1437,    1438,    8829,    8853,    8854,    8855,
    8856,    8857,    8858,    8859,    8860,    8861,
    8862,    8863,    8864,    8865,    8866,    8867,
    8868,    8869,    8870,    8871,    8872,    8873,
    9189,    9197,    9198,    9199,    9200,    9201,
    9202,    9203,    9204,    9205,    9206,    9207,
    9208,    9209,    9210,    9211,    9212,    9213,
    9214,    9215,    9216,    9217,    9525,    9526,
    9527,    9528,    9529,    9530,    9531,    9532,
    9533,    9534,    9535,    9536,    9537,    9538,
    9539,    9540,    9541,    9542,    9543,    9544,
